*HEADING
punch cross-check
*NODE, NSET=NSHEET
1, -20, 0, -1
2, -19.5, 0, -1
3, -19, 0, -1
4, -18.5, 0, -1
5, -18, 0, -1
6, -17.5, 0, -1
7, -17, 0, -1
8, -16.5, 0, -1
9, -16, 0, -1
10, -15.5, 0, -1
11, -15, 0, -1
12, -14.5, 0, -1
13, -14, 0, -1
14, -13.5, 0, -1
15, -13, 0, -1
16, -12.5, 0, -1
17, -12, 0, -1
18, -11.5, 0, -1
19, -11, 0, -1
20, -10.5, 0, -1
21, -10, 0, -1
22, -9.5, 0, -1
23, -9, 0, -1
24, -8.5, 0, -1
25, -8, 0, -1
26, -7.5, 0, -1
27, -7, 0, -1
28, -6.5, 0, -1
29, -6, 0, -1
30, -5.5, 0, -1
31, -5, 0, -1
32, -4.5, 0, -1
33, -4, 0, -1
34, -3.5, 0, -1
35, -3, 0, -1
36, -2.5, 0, -1
37, -2, 0, -1
38, -1.5, 0, -1
39, -1, 0, -1
40, -0.5, 0, -1
41, 0, 0, -1
42, 0.5, 0, -1
43, 1, 0, -1
44, 1.5, 0, -1
45, 2, 0, -1
46, 2.5, 0, -1
47, 3, 0, -1
48, 3.5, 0, -1
49, 4, 0, -1
50, 4.5, 0, -1
51, 5, 0, -1
52, 5.5, 0, -1
53, 6, 0, -1
54, 6.5, 0, -1
55, 7, 0, -1
56, 7.5, 0, -1
57, 8, 0, -1
58, 8.5, 0, -1
59, 9, 0, -1
60, 9.5, 0, -1
61, 10, 0, -1
62, 10.5, 0, -1
63, 11, 0, -1
64, 11.5, 0, -1
65, 12, 0, -1
66, 12.5, 0, -1
67, 13, 0, -1
68, 13.5, 0, -1
69, 14, 0, -1
70, 14.5, 0, -1
71, 15, 0, -1
72, 15.5, 0, -1
73, 16, 0, -1
74, 16.5, 0, -1
75, 17, 0, -1
76, 17.5, 0, -1
77, 18, 0, -1
78, 18.5, 0, -1
79, 19, 0, -1
80, 19.5, 0, -1
81, 20, 0, -1
82, -20, 0.5, -1
83, -19.5, 0.5, -1
84, -19, 0.5, -1
85, -18.5, 0.5, -1
86, -18, 0.5, -1
87, -17.5, 0.5, -1
88, -17, 0.5, -1
89, -16.5, 0.5, -1
90, -16, 0.5, -1
91, -15.5, 0.5, -1
92, -15, 0.5, -1
93, -14.5, 0.5, -1
94, -14, 0.5, -1
95, -13.5, 0.5, -1
96, -13, 0.5, -1
97, -12.5, 0.5, -1
98, -12, 0.5, -1
99, -11.5, 0.5, -1
100, -11, 0.5, -1
101, -10.5, 0.5, -1
102, -10, 0.5, -1
103, -9.5, 0.5, -1
104, -9, 0.5, -1
105, -8.5, 0.5, -1
106, -8, 0.5, -1
107, -7.5, 0.5, -1
108, -7, 0.5, -1
109, -6.5, 0.5, -1
110, -6, 0.5, -1
111, -5.5, 0.5, -1
112, -5, 0.5, -1
113, -4.5, 0.5, -1
114, -4, 0.5, -1
115, -3.5, 0.5, -1
116, -3, 0.5, -1
117, -2.5, 0.5, -1
118, -2, 0.5, -1
119, -1.5, 0.5, -1
120, -1, 0.5, -1
121, -0.5, 0.5, -1
122, 0, 0.5, -1
123, 0.5, 0.5, -1
124, 1, 0.5, -1
125, 1.5, 0.5, -1
126, 2, 0.5, -1
127, 2.5, 0.5, -1
128, 3, 0.5, -1
129, 3.5, 0.5, -1
130, 4, 0.5, -1
131, 4.5, 0.5, -1
132, 5, 0.5, -1
133, 5.5, 0.5, -1
134, 6, 0.5, -1
135, 6.5, 0.5, -1
136, 7, 0.5, -1
137, 7.5, 0.5, -1
138, 8, 0.5, -1
139, 8.5, 0.5, -1
140, 9, 0.5, -1
141, 9.5, 0.5, -1
142, 10, 0.5, -1
143, 10.5, 0.5, -1
144, 11, 0.5, -1
145, 11.5, 0.5, -1
146, 12, 0.5, -1
147, 12.5, 0.5, -1
148, 13, 0.5, -1
149, 13.5, 0.5, -1
150, 14, 0.5, -1
151, 14.5, 0.5, -1
152, 15, 0.5, -1
153, 15.5, 0.5, -1
154, 16, 0.5, -1
155, 16.5, 0.5, -1
156, 17, 0.5, -1
157, 17.5, 0.5, -1
158, 18, 0.5, -1
159, 18.5, 0.5, -1
160, 19, 0.5, -1
161, 19.5, 0.5, -1
162, 20, 0.5, -1
163, -20, 0, -0.875
164, -19.5, 0, -0.875
165, -19, 0, -0.875
166, -18.5, 0, -0.875
167, -18, 0, -0.875
168, -17.5, 0, -0.875
169, -17, 0, -0.875
170, -16.5, 0, -0.875
171, -16, 0, -0.875
172, -15.5, 0, -0.875
173, -15, 0, -0.875
174, -14.5, 0, -0.875
175, -14, 0, -0.875
176, -13.5, 0, -0.875
177, -13, 0, -0.875
178, -12.5, 0, -0.875
179, -12, 0, -0.875
180, -11.5, 0, -0.875
181, -11, 0, -0.875
182, -10.5, 0, -0.875
183, -10, 0, -0.875
184, -9.5, 0, -0.875
185, -9, 0, -0.875
186, -8.5, 0, -0.875
187, -8, 0, -0.875
188, -7.5, 0, -0.875
189, -7, 0, -0.875
190, -6.5, 0, -0.875
191, -6, 0, -0.875
192, -5.5, 0, -0.875
193, -5, 0, -0.875
194, -4.5, 0, -0.875
195, -4, 0, -0.875
196, -3.5, 0, -0.875
197, -3, 0, -0.875
198, -2.5, 0, -0.875
199, -2, 0, -0.875
200, -1.5, 0, -0.875
201, -1, 0, -0.875
202, -0.5, 0, -0.875
203, 0, 0, -0.875
204, 0.5, 0, -0.875
205, 1, 0, -0.875
206, 1.5, 0, -0.875
207, 2, 0, -0.875
208, 2.5, 0, -0.875
209, 3, 0, -0.875
210, 3.5, 0, -0.875
211, 4, 0, -0.875
212, 4.5, 0, -0.875
213, 5, 0, -0.875
214, 5.5, 0, -0.875
215, 6, 0, -0.875
216, 6.5, 0, -0.875
217, 7, 0, -0.875
218, 7.5, 0, -0.875
219, 8, 0, -0.875
220, 8.5, 0, -0.875
221, 9, 0, -0.875
222, 9.5, 0, -0.875
223, 10, 0, -0.875
224, 10.5, 0, -0.875
225, 11, 0, -0.875
226, 11.5, 0, -0.875
227, 12, 0, -0.875
228, 12.5, 0, -0.875
229, 13, 0, -0.875
230, 13.5, 0, -0.875
231, 14, 0, -0.875
232, 14.5, 0, -0.875
233, 15, 0, -0.875
234, 15.5, 0, -0.875
235, 16, 0, -0.875
236, 16.5, 0, -0.875
237, 17, 0, -0.875
238, 17.5, 0, -0.875
239, 18, 0, -0.875
240, 18.5, 0, -0.875
241, 19, 0, -0.875
242, 19.5, 0, -0.875
243, 20, 0, -0.875
244, -20, 0.5, -0.875
245, -19.5, 0.5, -0.875
246, -19, 0.5, -0.875
247, -18.5, 0.5, -0.875
248, -18, 0.5, -0.875
249, -17.5, 0.5, -0.875
250, -17, 0.5, -0.875
251, -16.5, 0.5, -0.875
252, -16, 0.5, -0.875
253, -15.5, 0.5, -0.875
254, -15, 0.5, -0.875
255, -14.5, 0.5, -0.875
256, -14, 0.5, -0.875
257, -13.5, 0.5, -0.875
258, -13, 0.5, -0.875
259, -12.5, 0.5, -0.875
260, -12, 0.5, -0.875
261, -11.5, 0.5, -0.875
262, -11, 0.5, -0.875
263, -10.5, 0.5, -0.875
264, -10, 0.5, -0.875
265, -9.5, 0.5, -0.875
266, -9, 0.5, -0.875
267, -8.5, 0.5, -0.875
268, -8, 0.5, -0.875
269, -7.5, 0.5, -0.875
270, -7, 0.5, -0.875
271, -6.5, 0.5, -0.875
272, -6, 0.5, -0.875
273, -5.5, 0.5, -0.875
274, -5, 0.5, -0.875
275, -4.5, 0.5, -0.875
276, -4, 0.5, -0.875
277, -3.5, 0.5, -0.875
278, -3, 0.5, -0.875
279, -2.5, 0.5, -0.875
280, -2, 0.5, -0.875
281, -1.5, 0.5, -0.875
282, -1, 0.5, -0.875
283, -0.5, 0.5, -0.875
284, 0, 0.5, -0.875
285, 0.5, 0.5, -0.875
286, 1, 0.5, -0.875
287, 1.5, 0.5, -0.875
288, 2, 0.5, -0.875
289, 2.5, 0.5, -0.875
290, 3, 0.5, -0.875
291, 3.5, 0.5, -0.875
292, 4, 0.5, -0.875
293, 4.5, 0.5, -0.875
294, 5, 0.5, -0.875
295, 5.5, 0.5, -0.875
296, 6, 0.5, -0.875
297, 6.5, 0.5, -0.875
298, 7, 0.5, -0.875
299, 7.5, 0.5, -0.875
300, 8, 0.5, -0.875
301, 8.5, 0.5, -0.875
302, 9, 0.5, -0.875
303, 9.5, 0.5, -0.875
304, 10, 0.5, -0.875
305, 10.5, 0.5, -0.875
306, 11, 0.5, -0.875
307, 11.5, 0.5, -0.875
308, 12, 0.5, -0.875
309, 12.5, 0.5, -0.875
310, 13, 0.5, -0.875
311, 13.5, 0.5, -0.875
312, 14, 0.5, -0.875
313, 14.5, 0.5, -0.875
314, 15, 0.5, -0.875
315, 15.5, 0.5, -0.875
316, 16, 0.5, -0.875
317, 16.5, 0.5, -0.875
318, 17, 0.5, -0.875
319, 17.5, 0.5, -0.875
320, 18, 0.5, -0.875
321, 18.5, 0.5, -0.875
322, 19, 0.5, -0.875
323, 19.5, 0.5, -0.875
324, 20, 0.5, -0.875
325, -20, 0, -0.75
326, -19.5, 0, -0.75
327, -19, 0, -0.75
328, -18.5, 0, -0.75
329, -18, 0, -0.75
330, -17.5, 0, -0.75
331, -17, 0, -0.75
332, -16.5, 0, -0.75
333, -16, 0, -0.75
334, -15.5, 0, -0.75
335, -15, 0, -0.75
336, -14.5, 0, -0.75
337, -14, 0, -0.75
338, -13.5, 0, -0.75
339, -13, 0, -0.75
340, -12.5, 0, -0.75
341, -12, 0, -0.75
342, -11.5, 0, -0.75
343, -11, 0, -0.75
344, -10.5, 0, -0.75
345, -10, 0, -0.75
346, -9.5, 0, -0.75
347, -9, 0, -0.75
348, -8.5, 0, -0.75
349, -8, 0, -0.75
350, -7.5, 0, -0.75
351, -7, 0, -0.75
352, -6.5, 0, -0.75
353, -6, 0, -0.75
354, -5.5, 0, -0.75
355, -5, 0, -0.75
356, -4.5, 0, -0.75
357, -4, 0, -0.75
358, -3.5, 0, -0.75
359, -3, 0, -0.75
360, -2.5, 0, -0.75
361, -2, 0, -0.75
362, -1.5, 0, -0.75
363, -1, 0, -0.75
364, -0.5, 0, -0.75
365, 0, 0, -0.75
366, 0.5, 0, -0.75
367, 1, 0, -0.75
368, 1.5, 0, -0.75
369, 2, 0, -0.75
370, 2.5, 0, -0.75
371, 3, 0, -0.75
372, 3.5, 0, -0.75
373, 4, 0, -0.75
374, 4.5, 0, -0.75
375, 5, 0, -0.75
376, 5.5, 0, -0.75
377, 6, 0, -0.75
378, 6.5, 0, -0.75
379, 7, 0, -0.75
380, 7.5, 0, -0.75
381, 8, 0, -0.75
382, 8.5, 0, -0.75
383, 9, 0, -0.75
384, 9.5, 0, -0.75
385, 10, 0, -0.75
386, 10.5, 0, -0.75
387, 11, 0, -0.75
388, 11.5, 0, -0.75
389, 12, 0, -0.75
390, 12.5, 0, -0.75
391, 13, 0, -0.75
392, 13.5, 0, -0.75
393, 14, 0, -0.75
394, 14.5, 0, -0.75
395, 15, 0, -0.75
396, 15.5, 0, -0.75
397, 16, 0, -0.75
398, 16.5, 0, -0.75
399, 17, 0, -0.75
400, 17.5, 0, -0.75
401, 18, 0, -0.75
402, 18.5, 0, -0.75
403, 19, 0, -0.75
404, 19.5, 0, -0.75
405, 20, 0, -0.75
406, -20, 0.5, -0.75
407, -19.5, 0.5, -0.75
408, -19, 0.5, -0.75
409, -18.5, 0.5, -0.75
410, -18, 0.5, -0.75
411, -17.5, 0.5, -0.75
412, -17, 0.5, -0.75
413, -16.5, 0.5, -0.75
414, -16, 0.5, -0.75
415, -15.5, 0.5, -0.75
416, -15, 0.5, -0.75
417, -14.5, 0.5, -0.75
418, -14, 0.5, -0.75
419, -13.5, 0.5, -0.75
420, -13, 0.5, -0.75
421, -12.5, 0.5, -0.75
422, -12, 0.5, -0.75
423, -11.5, 0.5, -0.75
424, -11, 0.5, -0.75
425, -10.5, 0.5, -0.75
426, -10, 0.5, -0.75
427, -9.5, 0.5, -0.75
428, -9, 0.5, -0.75
429, -8.5, 0.5, -0.75
430, -8, 0.5, -0.75
431, -7.5, 0.5, -0.75
432, -7, 0.5, -0.75
433, -6.5, 0.5, -0.75
434, -6, 0.5, -0.75
435, -5.5, 0.5, -0.75
436, -5, 0.5, -0.75
437, -4.5, 0.5, -0.75
438, -4, 0.5, -0.75
439, -3.5, 0.5, -0.75
440, -3, 0.5, -0.75
441, -2.5, 0.5, -0.75
442, -2, 0.5, -0.75
443, -1.5, 0.5, -0.75
444, -1, 0.5, -0.75
445, -0.5, 0.5, -0.75
446, 0, 0.5, -0.75
447, 0.5, 0.5, -0.75
448, 1, 0.5, -0.75
449, 1.5, 0.5, -0.75
450, 2, 0.5, -0.75
451, 2.5, 0.5, -0.75
452, 3, 0.5, -0.75
453, 3.5, 0.5, -0.75
454, 4, 0.5, -0.75
455, 4.5, 0.5, -0.75
456, 5, 0.5, -0.75
457, 5.5, 0.5, -0.75
458, 6, 0.5, -0.75
459, 6.5, 0.5, -0.75
460, 7, 0.5, -0.75
461, 7.5, 0.5, -0.75
462, 8, 0.5, -0.75
463, 8.5, 0.5, -0.75
464, 9, 0.5, -0.75
465, 9.5, 0.5, -0.75
466, 10, 0.5, -0.75
467, 10.5, 0.5, -0.75
468, 11, 0.5, -0.75
469, 11.5, 0.5, -0.75
470, 12, 0.5, -0.75
471, 12.5, 0.5, -0.75
472, 13, 0.5, -0.75
473, 13.5, 0.5, -0.75
474, 14, 0.5, -0.75
475, 14.5, 0.5, -0.75
476, 15, 0.5, -0.75
477, 15.5, 0.5, -0.75
478, 16, 0.5, -0.75
479, 16.5, 0.5, -0.75
480, 17, 0.5, -0.75
481, 17.5, 0.5, -0.75
482, 18, 0.5, -0.75
483, 18.5, 0.5, -0.75
484, 19, 0.5, -0.75
485, 19.5, 0.5, -0.75
486, 20, 0.5, -0.75
487, -20, 0, -0.625
488, -19.5, 0, -0.625
489, -19, 0, -0.625
490, -18.5, 0, -0.625
491, -18, 0, -0.625
492, -17.5, 0, -0.625
493, -17, 0, -0.625
494, -16.5, 0, -0.625
495, -16, 0, -0.625
496, -15.5, 0, -0.625
497, -15, 0, -0.625
498, -14.5, 0, -0.625
499, -14, 0, -0.625
500, -13.5, 0, -0.625
501, -13, 0, -0.625
502, -12.5, 0, -0.625
503, -12, 0, -0.625
504, -11.5, 0, -0.625
505, -11, 0, -0.625
506, -10.5, 0, -0.625
507, -10, 0, -0.625
508, -9.5, 0, -0.625
509, -9, 0, -0.625
510, -8.5, 0, -0.625
511, -8, 0, -0.625
512, -7.5, 0, -0.625
513, -7, 0, -0.625
514, -6.5, 0, -0.625
515, -6, 0, -0.625
516, -5.5, 0, -0.625
517, -5, 0, -0.625
518, -4.5, 0, -0.625
519, -4, 0, -0.625
520, -3.5, 0, -0.625
521, -3, 0, -0.625
522, -2.5, 0, -0.625
523, -2, 0, -0.625
524, -1.5, 0, -0.625
525, -1, 0, -0.625
526, -0.5, 0, -0.625
527, 0, 0, -0.625
528, 0.5, 0, -0.625
529, 1, 0, -0.625
530, 1.5, 0, -0.625
531, 2, 0, -0.625
532, 2.5, 0, -0.625
533, 3, 0, -0.625
534, 3.5, 0, -0.625
535, 4, 0, -0.625
536, 4.5, 0, -0.625
537, 5, 0, -0.625
538, 5.5, 0, -0.625
539, 6, 0, -0.625
540, 6.5, 0, -0.625
541, 7, 0, -0.625
542, 7.5, 0, -0.625
543, 8, 0, -0.625
544, 8.5, 0, -0.625
545, 9, 0, -0.625
546, 9.5, 0, -0.625
547, 10, 0, -0.625
548, 10.5, 0, -0.625
549, 11, 0, -0.625
550, 11.5, 0, -0.625
551, 12, 0, -0.625
552, 12.5, 0, -0.625
553, 13, 0, -0.625
554, 13.5, 0, -0.625
555, 14, 0, -0.625
556, 14.5, 0, -0.625
557, 15, 0, -0.625
558, 15.5, 0, -0.625
559, 16, 0, -0.625
560, 16.5, 0, -0.625
561, 17, 0, -0.625
562, 17.5, 0, -0.625
563, 18, 0, -0.625
564, 18.5, 0, -0.625
565, 19, 0, -0.625
566, 19.5, 0, -0.625
567, 20, 0, -0.625
568, -20, 0.5, -0.625
569, -19.5, 0.5, -0.625
570, -19, 0.5, -0.625
571, -18.5, 0.5, -0.625
572, -18, 0.5, -0.625
573, -17.5, 0.5, -0.625
574, -17, 0.5, -0.625
575, -16.5, 0.5, -0.625
576, -16, 0.5, -0.625
577, -15.5, 0.5, -0.625
578, -15, 0.5, -0.625
579, -14.5, 0.5, -0.625
580, -14, 0.5, -0.625
581, -13.5, 0.5, -0.625
582, -13, 0.5, -0.625
583, -12.5, 0.5, -0.625
584, -12, 0.5, -0.625
585, -11.5, 0.5, -0.625
586, -11, 0.5, -0.625
587, -10.5, 0.5, -0.625
588, -10, 0.5, -0.625
589, -9.5, 0.5, -0.625
590, -9, 0.5, -0.625
591, -8.5, 0.5, -0.625
592, -8, 0.5, -0.625
593, -7.5, 0.5, -0.625
594, -7, 0.5, -0.625
595, -6.5, 0.5, -0.625
596, -6, 0.5, -0.625
597, -5.5, 0.5, -0.625
598, -5, 0.5, -0.625
599, -4.5, 0.5, -0.625
600, -4, 0.5, -0.625
601, -3.5, 0.5, -0.625
602, -3, 0.5, -0.625
603, -2.5, 0.5, -0.625
604, -2, 0.5, -0.625
605, -1.5, 0.5, -0.625
606, -1, 0.5, -0.625
607, -0.5, 0.5, -0.625
608, 0, 0.5, -0.625
609, 0.5, 0.5, -0.625
610, 1, 0.5, -0.625
611, 1.5, 0.5, -0.625
612, 2, 0.5, -0.625
613, 2.5, 0.5, -0.625
614, 3, 0.5, -0.625
615, 3.5, 0.5, -0.625
616, 4, 0.5, -0.625
617, 4.5, 0.5, -0.625
618, 5, 0.5, -0.625
619, 5.5, 0.5, -0.625
620, 6, 0.5, -0.625
621, 6.5, 0.5, -0.625
622, 7, 0.5, -0.625
623, 7.5, 0.5, -0.625
624, 8, 0.5, -0.625
625, 8.5, 0.5, -0.625
626, 9, 0.5, -0.625
627, 9.5, 0.5, -0.625
628, 10, 0.5, -0.625
629, 10.5, 0.5, -0.625
630, 11, 0.5, -0.625
631, 11.5, 0.5, -0.625
632, 12, 0.5, -0.625
633, 12.5, 0.5, -0.625
634, 13, 0.5, -0.625
635, 13.5, 0.5, -0.625
636, 14, 0.5, -0.625
637, 14.5, 0.5, -0.625
638, 15, 0.5, -0.625
639, 15.5, 0.5, -0.625
640, 16, 0.5, -0.625
641, 16.5, 0.5, -0.625
642, 17, 0.5, -0.625
643, 17.5, 0.5, -0.625
644, 18, 0.5, -0.625
645, 18.5, 0.5, -0.625
646, 19, 0.5, -0.625
647, 19.5, 0.5, -0.625
648, 20, 0.5, -0.625
649, -20, 0, -0.5
650, -19.5, 0, -0.5
651, -19, 0, -0.5
652, -18.5, 0, -0.5
653, -18, 0, -0.5
654, -17.5, 0, -0.5
655, -17, 0, -0.5
656, -16.5, 0, -0.5
657, -16, 0, -0.5
658, -15.5, 0, -0.5
659, -15, 0, -0.5
660, -14.5, 0, -0.5
661, -14, 0, -0.5
662, -13.5, 0, -0.5
663, -13, 0, -0.5
664, -12.5, 0, -0.5
665, -12, 0, -0.5
666, -11.5, 0, -0.5
667, -11, 0, -0.5
668, -10.5, 0, -0.5
669, -10, 0, -0.5
670, -9.5, 0, -0.5
671, -9, 0, -0.5
672, -8.5, 0, -0.5
673, -8, 0, -0.5
674, -7.5, 0, -0.5
675, -7, 0, -0.5
676, -6.5, 0, -0.5
677, -6, 0, -0.5
678, -5.5, 0, -0.5
679, -5, 0, -0.5
680, -4.5, 0, -0.5
681, -4, 0, -0.5
682, -3.5, 0, -0.5
683, -3, 0, -0.5
684, -2.5, 0, -0.5
685, -2, 0, -0.5
686, -1.5, 0, -0.5
687, -1, 0, -0.5
688, -0.5, 0, -0.5
689, 0, 0, -0.5
690, 0.5, 0, -0.5
691, 1, 0, -0.5
692, 1.5, 0, -0.5
693, 2, 0, -0.5
694, 2.5, 0, -0.5
695, 3, 0, -0.5
696, 3.5, 0, -0.5
697, 4, 0, -0.5
698, 4.5, 0, -0.5
699, 5, 0, -0.5
700, 5.5, 0, -0.5
701, 6, 0, -0.5
702, 6.5, 0, -0.5
703, 7, 0, -0.5
704, 7.5, 0, -0.5
705, 8, 0, -0.5
706, 8.5, 0, -0.5
707, 9, 0, -0.5
708, 9.5, 0, -0.5
709, 10, 0, -0.5
710, 10.5, 0, -0.5
711, 11, 0, -0.5
712, 11.5, 0, -0.5
713, 12, 0, -0.5
714, 12.5, 0, -0.5
715, 13, 0, -0.5
716, 13.5, 0, -0.5
717, 14, 0, -0.5
718, 14.5, 0, -0.5
719, 15, 0, -0.5
720, 15.5, 0, -0.5
721, 16, 0, -0.5
722, 16.5, 0, -0.5
723, 17, 0, -0.5
724, 17.5, 0, -0.5
725, 18, 0, -0.5
726, 18.5, 0, -0.5
727, 19, 0, -0.5
728, 19.5, 0, -0.5
729, 20, 0, -0.5
730, -20, 0.5, -0.5
731, -19.5, 0.5, -0.5
732, -19, 0.5, -0.5
733, -18.5, 0.5, -0.5
734, -18, 0.5, -0.5
735, -17.5, 0.5, -0.5
736, -17, 0.5, -0.5
737, -16.5, 0.5, -0.5
738, -16, 0.5, -0.5
739, -15.5, 0.5, -0.5
740, -15, 0.5, -0.5
741, -14.5, 0.5, -0.5
742, -14, 0.5, -0.5
743, -13.5, 0.5, -0.5
744, -13, 0.5, -0.5
745, -12.5, 0.5, -0.5
746, -12, 0.5, -0.5
747, -11.5, 0.5, -0.5
748, -11, 0.5, -0.5
749, -10.5, 0.5, -0.5
750, -10, 0.5, -0.5
751, -9.5, 0.5, -0.5
752, -9, 0.5, -0.5
753, -8.5, 0.5, -0.5
754, -8, 0.5, -0.5
755, -7.5, 0.5, -0.5
756, -7, 0.5, -0.5
757, -6.5, 0.5, -0.5
758, -6, 0.5, -0.5
759, -5.5, 0.5, -0.5
760, -5, 0.5, -0.5
761, -4.5, 0.5, -0.5
762, -4, 0.5, -0.5
763, -3.5, 0.5, -0.5
764, -3, 0.5, -0.5
765, -2.5, 0.5, -0.5
766, -2, 0.5, -0.5
767, -1.5, 0.5, -0.5
768, -1, 0.5, -0.5
769, -0.5, 0.5, -0.5
770, 0, 0.5, -0.5
771, 0.5, 0.5, -0.5
772, 1, 0.5, -0.5
773, 1.5, 0.5, -0.5
774, 2, 0.5, -0.5
775, 2.5, 0.5, -0.5
776, 3, 0.5, -0.5
777, 3.5, 0.5, -0.5
778, 4, 0.5, -0.5
779, 4.5, 0.5, -0.5
780, 5, 0.5, -0.5
781, 5.5, 0.5, -0.5
782, 6, 0.5, -0.5
783, 6.5, 0.5, -0.5
784, 7, 0.5, -0.5
785, 7.5, 0.5, -0.5
786, 8, 0.5, -0.5
787, 8.5, 0.5, -0.5
788, 9, 0.5, -0.5
789, 9.5, 0.5, -0.5
790, 10, 0.5, -0.5
791, 10.5, 0.5, -0.5
792, 11, 0.5, -0.5
793, 11.5, 0.5, -0.5
794, 12, 0.5, -0.5
795, 12.5, 0.5, -0.5
796, 13, 0.5, -0.5
797, 13.5, 0.5, -0.5
798, 14, 0.5, -0.5
799, 14.5, 0.5, -0.5
800, 15, 0.5, -0.5
801, 15.5, 0.5, -0.5
802, 16, 0.5, -0.5
803, 16.5, 0.5, -0.5
804, 17, 0.5, -0.5
805, 17.5, 0.5, -0.5
806, 18, 0.5, -0.5
807, 18.5, 0.5, -0.5
808, 19, 0.5, -0.5
809, 19.5, 0.5, -0.5
810, 20, 0.5, -0.5
811, -20, 0, -0.375
812, -19.5, 0, -0.375
813, -19, 0, -0.375
814, -18.5, 0, -0.375
815, -18, 0, -0.375
816, -17.5, 0, -0.375
817, -17, 0, -0.375
818, -16.5, 0, -0.375
819, -16, 0, -0.375
820, -15.5, 0, -0.375
821, -15, 0, -0.375
822, -14.5, 0, -0.375
823, -14, 0, -0.375
824, -13.5, 0, -0.375
825, -13, 0, -0.375
826, -12.5, 0, -0.375
827, -12, 0, -0.375
828, -11.5, 0, -0.375
829, -11, 0, -0.375
830, -10.5, 0, -0.375
831, -10, 0, -0.375
832, -9.5, 0, -0.375
833, -9, 0, -0.375
834, -8.5, 0, -0.375
835, -8, 0, -0.375
836, -7.5, 0, -0.375
837, -7, 0, -0.375
838, -6.5, 0, -0.375
839, -6, 0, -0.375
840, -5.5, 0, -0.375
841, -5, 0, -0.375
842, -4.5, 0, -0.375
843, -4, 0, -0.375
844, -3.5, 0, -0.375
845, -3, 0, -0.375
846, -2.5, 0, -0.375
847, -2, 0, -0.375
848, -1.5, 0, -0.375
849, -1, 0, -0.375
850, -0.5, 0, -0.375
851, 0, 0, -0.375
852, 0.5, 0, -0.375
853, 1, 0, -0.375
854, 1.5, 0, -0.375
855, 2, 0, -0.375
856, 2.5, 0, -0.375
857, 3, 0, -0.375
858, 3.5, 0, -0.375
859, 4, 0, -0.375
860, 4.5, 0, -0.375
861, 5, 0, -0.375
862, 5.5, 0, -0.375
863, 6, 0, -0.375
864, 6.5, 0, -0.375
865, 7, 0, -0.375
866, 7.5, 0, -0.375
867, 8, 0, -0.375
868, 8.5, 0, -0.375
869, 9, 0, -0.375
870, 9.5, 0, -0.375
871, 10, 0, -0.375
872, 10.5, 0, -0.375
873, 11, 0, -0.375
874, 11.5, 0, -0.375
875, 12, 0, -0.375
876, 12.5, 0, -0.375
877, 13, 0, -0.375
878, 13.5, 0, -0.375
879, 14, 0, -0.375
880, 14.5, 0, -0.375
881, 15, 0, -0.375
882, 15.5, 0, -0.375
883, 16, 0, -0.375
884, 16.5, 0, -0.375
885, 17, 0, -0.375
886, 17.5, 0, -0.375
887, 18, 0, -0.375
888, 18.5, 0, -0.375
889, 19, 0, -0.375
890, 19.5, 0, -0.375
891, 20, 0, -0.375
892, -20, 0.5, -0.375
893, -19.5, 0.5, -0.375
894, -19, 0.5, -0.375
895, -18.5, 0.5, -0.375
896, -18, 0.5, -0.375
897, -17.5, 0.5, -0.375
898, -17, 0.5, -0.375
899, -16.5, 0.5, -0.375
900, -16, 0.5, -0.375
901, -15.5, 0.5, -0.375
902, -15, 0.5, -0.375
903, -14.5, 0.5, -0.375
904, -14, 0.5, -0.375
905, -13.5, 0.5, -0.375
906, -13, 0.5, -0.375
907, -12.5, 0.5, -0.375
908, -12, 0.5, -0.375
909, -11.5, 0.5, -0.375
910, -11, 0.5, -0.375
911, -10.5, 0.5, -0.375
912, -10, 0.5, -0.375
913, -9.5, 0.5, -0.375
914, -9, 0.5, -0.375
915, -8.5, 0.5, -0.375
916, -8, 0.5, -0.375
917, -7.5, 0.5, -0.375
918, -7, 0.5, -0.375
919, -6.5, 0.5, -0.375
920, -6, 0.5, -0.375
921, -5.5, 0.5, -0.375
922, -5, 0.5, -0.375
923, -4.5, 0.5, -0.375
924, -4, 0.5, -0.375
925, -3.5, 0.5, -0.375
926, -3, 0.5, -0.375
927, -2.5, 0.5, -0.375
928, -2, 0.5, -0.375
929, -1.5, 0.5, -0.375
930, -1, 0.5, -0.375
931, -0.5, 0.5, -0.375
932, 0, 0.5, -0.375
933, 0.5, 0.5, -0.375
934, 1, 0.5, -0.375
935, 1.5, 0.5, -0.375
936, 2, 0.5, -0.375
937, 2.5, 0.5, -0.375
938, 3, 0.5, -0.375
939, 3.5, 0.5, -0.375
940, 4, 0.5, -0.375
941, 4.5, 0.5, -0.375
942, 5, 0.5, -0.375
943, 5.5, 0.5, -0.375
944, 6, 0.5, -0.375
945, 6.5, 0.5, -0.375
946, 7, 0.5, -0.375
947, 7.5, 0.5, -0.375
948, 8, 0.5, -0.375
949, 8.5, 0.5, -0.375
950, 9, 0.5, -0.375
951, 9.5, 0.5, -0.375
952, 10, 0.5, -0.375
953, 10.5, 0.5, -0.375
954, 11, 0.5, -0.375
955, 11.5, 0.5, -0.375
956, 12, 0.5, -0.375
957, 12.5, 0.5, -0.375
958, 13, 0.5, -0.375
959, 13.5, 0.5, -0.375
960, 14, 0.5, -0.375
961, 14.5, 0.5, -0.375
962, 15, 0.5, -0.375
963, 15.5, 0.5, -0.375
964, 16, 0.5, -0.375
965, 16.5, 0.5, -0.375
966, 17, 0.5, -0.375
967, 17.5, 0.5, -0.375
968, 18, 0.5, -0.375
969, 18.5, 0.5, -0.375
970, 19, 0.5, -0.375
971, 19.5, 0.5, -0.375
972, 20, 0.5, -0.375
973, -20, 0, -0.25
974, -19.5, 0, -0.25
975, -19, 0, -0.25
976, -18.5, 0, -0.25
977, -18, 0, -0.25
978, -17.5, 0, -0.25
979, -17, 0, -0.25
980, -16.5, 0, -0.25
981, -16, 0, -0.25
982, -15.5, 0, -0.25
983, -15, 0, -0.25
984, -14.5, 0, -0.25
985, -14, 0, -0.25
986, -13.5, 0, -0.25
987, -13, 0, -0.25
988, -12.5, 0, -0.25
989, -12, 0, -0.25
990, -11.5, 0, -0.25
991, -11, 0, -0.25
992, -10.5, 0, -0.25
993, -10, 0, -0.25
994, -9.5, 0, -0.25
995, -9, 0, -0.25
996, -8.5, 0, -0.25
997, -8, 0, -0.25
998, -7.5, 0, -0.25
999, -7, 0, -0.25
1000, -6.5, 0, -0.25
1001, -6, 0, -0.25
1002, -5.5, 0, -0.25
1003, -5, 0, -0.25
1004, -4.5, 0, -0.25
1005, -4, 0, -0.25
1006, -3.5, 0, -0.25
1007, -3, 0, -0.25
1008, -2.5, 0, -0.25
1009, -2, 0, -0.25
1010, -1.5, 0, -0.25
1011, -1, 0, -0.25
1012, -0.5, 0, -0.25
1013, 0, 0, -0.25
1014, 0.5, 0, -0.25
1015, 1, 0, -0.25
1016, 1.5, 0, -0.25
1017, 2, 0, -0.25
1018, 2.5, 0, -0.25
1019, 3, 0, -0.25
1020, 3.5, 0, -0.25
1021, 4, 0, -0.25
1022, 4.5, 0, -0.25
1023, 5, 0, -0.25
1024, 5.5, 0, -0.25
1025, 6, 0, -0.25
1026, 6.5, 0, -0.25
1027, 7, 0, -0.25
1028, 7.5, 0, -0.25
1029, 8, 0, -0.25
1030, 8.5, 0, -0.25
1031, 9, 0, -0.25
1032, 9.5, 0, -0.25
1033, 10, 0, -0.25
1034, 10.5, 0, -0.25
1035, 11, 0, -0.25
1036, 11.5, 0, -0.25
1037, 12, 0, -0.25
1038, 12.5, 0, -0.25
1039, 13, 0, -0.25
1040, 13.5, 0, -0.25
1041, 14, 0, -0.25
1042, 14.5, 0, -0.25
1043, 15, 0, -0.25
1044, 15.5, 0, -0.25
1045, 16, 0, -0.25
1046, 16.5, 0, -0.25
1047, 17, 0, -0.25
1048, 17.5, 0, -0.25
1049, 18, 0, -0.25
1050, 18.5, 0, -0.25
1051, 19, 0, -0.25
1052, 19.5, 0, -0.25
1053, 20, 0, -0.25
1054, -20, 0.5, -0.25
1055, -19.5, 0.5, -0.25
1056, -19, 0.5, -0.25
1057, -18.5, 0.5, -0.25
1058, -18, 0.5, -0.25
1059, -17.5, 0.5, -0.25
1060, -17, 0.5, -0.25
1061, -16.5, 0.5, -0.25
1062, -16, 0.5, -0.25
1063, -15.5, 0.5, -0.25
1064, -15, 0.5, -0.25
1065, -14.5, 0.5, -0.25
1066, -14, 0.5, -0.25
1067, -13.5, 0.5, -0.25
1068, -13, 0.5, -0.25
1069, -12.5, 0.5, -0.25
1070, -12, 0.5, -0.25
1071, -11.5, 0.5, -0.25
1072, -11, 0.5, -0.25
1073, -10.5, 0.5, -0.25
1074, -10, 0.5, -0.25
1075, -9.5, 0.5, -0.25
1076, -9, 0.5, -0.25
1077, -8.5, 0.5, -0.25
1078, -8, 0.5, -0.25
1079, -7.5, 0.5, -0.25
1080, -7, 0.5, -0.25
1081, -6.5, 0.5, -0.25
1082, -6, 0.5, -0.25
1083, -5.5, 0.5, -0.25
1084, -5, 0.5, -0.25
1085, -4.5, 0.5, -0.25
1086, -4, 0.5, -0.25
1087, -3.5, 0.5, -0.25
1088, -3, 0.5, -0.25
1089, -2.5, 0.5, -0.25
1090, -2, 0.5, -0.25
1091, -1.5, 0.5, -0.25
1092, -1, 0.5, -0.25
1093, -0.5, 0.5, -0.25
1094, 0, 0.5, -0.25
1095, 0.5, 0.5, -0.25
1096, 1, 0.5, -0.25
1097, 1.5, 0.5, -0.25
1098, 2, 0.5, -0.25
1099, 2.5, 0.5, -0.25
1100, 3, 0.5, -0.25
1101, 3.5, 0.5, -0.25
1102, 4, 0.5, -0.25
1103, 4.5, 0.5, -0.25
1104, 5, 0.5, -0.25
1105, 5.5, 0.5, -0.25
1106, 6, 0.5, -0.25
1107, 6.5, 0.5, -0.25
1108, 7, 0.5, -0.25
1109, 7.5, 0.5, -0.25
1110, 8, 0.5, -0.25
1111, 8.5, 0.5, -0.25
1112, 9, 0.5, -0.25
1113, 9.5, 0.5, -0.25
1114, 10, 0.5, -0.25
1115, 10.5, 0.5, -0.25
1116, 11, 0.5, -0.25
1117, 11.5, 0.5, -0.25
1118, 12, 0.5, -0.25
1119, 12.5, 0.5, -0.25
1120, 13, 0.5, -0.25
1121, 13.5, 0.5, -0.25
1122, 14, 0.5, -0.25
1123, 14.5, 0.5, -0.25
1124, 15, 0.5, -0.25
1125, 15.5, 0.5, -0.25
1126, 16, 0.5, -0.25
1127, 16.5, 0.5, -0.25
1128, 17, 0.5, -0.25
1129, 17.5, 0.5, -0.25
1130, 18, 0.5, -0.25
1131, 18.5, 0.5, -0.25
1132, 19, 0.5, -0.25
1133, 19.5, 0.5, -0.25
1134, 20, 0.5, -0.25
1135, -20, 0, -0.125
1136, -19.5, 0, -0.125
1137, -19, 0, -0.125
1138, -18.5, 0, -0.125
1139, -18, 0, -0.125
1140, -17.5, 0, -0.125
1141, -17, 0, -0.125
1142, -16.5, 0, -0.125
1143, -16, 0, -0.125
1144, -15.5, 0, -0.125
1145, -15, 0, -0.125
1146, -14.5, 0, -0.125
1147, -14, 0, -0.125
1148, -13.5, 0, -0.125
1149, -13, 0, -0.125
1150, -12.5, 0, -0.125
1151, -12, 0, -0.125
1152, -11.5, 0, -0.125
1153, -11, 0, -0.125
1154, -10.5, 0, -0.125
1155, -10, 0, -0.125
1156, -9.5, 0, -0.125
1157, -9, 0, -0.125
1158, -8.5, 0, -0.125
1159, -8, 0, -0.125
1160, -7.5, 0, -0.125
1161, -7, 0, -0.125
1162, -6.5, 0, -0.125
1163, -6, 0, -0.125
1164, -5.5, 0, -0.125
1165, -5, 0, -0.125
1166, -4.5, 0, -0.125
1167, -4, 0, -0.125
1168, -3.5, 0, -0.125
1169, -3, 0, -0.125
1170, -2.5, 0, -0.125
1171, -2, 0, -0.125
1172, -1.5, 0, -0.125
1173, -1, 0, -0.125
1174, -0.5, 0, -0.125
1175, 0, 0, -0.125
1176, 0.5, 0, -0.125
1177, 1, 0, -0.125
1178, 1.5, 0, -0.125
1179, 2, 0, -0.125
1180, 2.5, 0, -0.125
1181, 3, 0, -0.125
1182, 3.5, 0, -0.125
1183, 4, 0, -0.125
1184, 4.5, 0, -0.125
1185, 5, 0, -0.125
1186, 5.5, 0, -0.125
1187, 6, 0, -0.125
1188, 6.5, 0, -0.125
1189, 7, 0, -0.125
1190, 7.5, 0, -0.125
1191, 8, 0, -0.125
1192, 8.5, 0, -0.125
1193, 9, 0, -0.125
1194, 9.5, 0, -0.125
1195, 10, 0, -0.125
1196, 10.5, 0, -0.125
1197, 11, 0, -0.125
1198, 11.5, 0, -0.125
1199, 12, 0, -0.125
1200, 12.5, 0, -0.125
1201, 13, 0, -0.125
1202, 13.5, 0, -0.125
1203, 14, 0, -0.125
1204, 14.5, 0, -0.125
1205, 15, 0, -0.125
1206, 15.5, 0, -0.125
1207, 16, 0, -0.125
1208, 16.5, 0, -0.125
1209, 17, 0, -0.125
1210, 17.5, 0, -0.125
1211, 18, 0, -0.125
1212, 18.5, 0, -0.125
1213, 19, 0, -0.125
1214, 19.5, 0, -0.125
1215, 20, 0, -0.125
1216, -20, 0.5, -0.125
1217, -19.5, 0.5, -0.125
1218, -19, 0.5, -0.125
1219, -18.5, 0.5, -0.125
1220, -18, 0.5, -0.125
1221, -17.5, 0.5, -0.125
1222, -17, 0.5, -0.125
1223, -16.5, 0.5, -0.125
1224, -16, 0.5, -0.125
1225, -15.5, 0.5, -0.125
1226, -15, 0.5, -0.125
1227, -14.5, 0.5, -0.125
1228, -14, 0.5, -0.125
1229, -13.5, 0.5, -0.125
1230, -13, 0.5, -0.125
1231, -12.5, 0.5, -0.125
1232, -12, 0.5, -0.125
1233, -11.5, 0.5, -0.125
1234, -11, 0.5, -0.125
1235, -10.5, 0.5, -0.125
1236, -10, 0.5, -0.125
1237, -9.5, 0.5, -0.125
1238, -9, 0.5, -0.125
1239, -8.5, 0.5, -0.125
1240, -8, 0.5, -0.125
1241, -7.5, 0.5, -0.125
1242, -7, 0.5, -0.125
1243, -6.5, 0.5, -0.125
1244, -6, 0.5, -0.125
1245, -5.5, 0.5, -0.125
1246, -5, 0.5, -0.125
1247, -4.5, 0.5, -0.125
1248, -4, 0.5, -0.125
1249, -3.5, 0.5, -0.125
1250, -3, 0.5, -0.125
1251, -2.5, 0.5, -0.125
1252, -2, 0.5, -0.125
1253, -1.5, 0.5, -0.125
1254, -1, 0.5, -0.125
1255, -0.5, 0.5, -0.125
1256, 0, 0.5, -0.125
1257, 0.5, 0.5, -0.125
1258, 1, 0.5, -0.125
1259, 1.5, 0.5, -0.125
1260, 2, 0.5, -0.125
1261, 2.5, 0.5, -0.125
1262, 3, 0.5, -0.125
1263, 3.5, 0.5, -0.125
1264, 4, 0.5, -0.125
1265, 4.5, 0.5, -0.125
1266, 5, 0.5, -0.125
1267, 5.5, 0.5, -0.125
1268, 6, 0.5, -0.125
1269, 6.5, 0.5, -0.125
1270, 7, 0.5, -0.125
1271, 7.5, 0.5, -0.125
1272, 8, 0.5, -0.125
1273, 8.5, 0.5, -0.125
1274, 9, 0.5, -0.125
1275, 9.5, 0.5, -0.125
1276, 10, 0.5, -0.125
1277, 10.5, 0.5, -0.125
1278, 11, 0.5, -0.125
1279, 11.5, 0.5, -0.125
1280, 12, 0.5, -0.125
1281, 12.5, 0.5, -0.125
1282, 13, 0.5, -0.125
1283, 13.5, 0.5, -0.125
1284, 14, 0.5, -0.125
1285, 14.5, 0.5, -0.125
1286, 15, 0.5, -0.125
1287, 15.5, 0.5, -0.125
1288, 16, 0.5, -0.125
1289, 16.5, 0.5, -0.125
1290, 17, 0.5, -0.125
1291, 17.5, 0.5, -0.125
1292, 18, 0.5, -0.125
1293, 18.5, 0.5, -0.125
1294, 19, 0.5, -0.125
1295, 19.5, 0.5, -0.125
1296, 20, 0.5, -0.125
1297, -20, 0, 0
1298, -19.5, 0, 0
1299, -19, 0, 0
1300, -18.5, 0, 0
1301, -18, 0, 0
1302, -17.5, 0, 0
1303, -17, 0, 0
1304, -16.5, 0, 0
1305, -16, 0, 0
1306, -15.5, 0, 0
1307, -15, 0, 0
1308, -14.5, 0, 0
1309, -14, 0, 0
1310, -13.5, 0, 0
1311, -13, 0, 0
1312, -12.5, 0, 0
1313, -12, 0, 0
1314, -11.5, 0, 0
1315, -11, 0, 0
1316, -10.5, 0, 0
1317, -10, 0, 0
1318, -9.5, 0, 0
1319, -9, 0, 0
1320, -8.5, 0, 0
1321, -8, 0, 0
1322, -7.5, 0, 0
1323, -7, 0, 0
1324, -6.5, 0, 0
1325, -6, 0, 0
1326, -5.5, 0, 0
1327, -5, 0, 0
1328, -4.5, 0, 0
1329, -4, 0, 0
1330, -3.5, 0, 0
1331, -3, 0, 0
1332, -2.5, 0, 0
1333, -2, 0, 0
1334, -1.5, 0, 0
1335, -1, 0, 0
1336, -0.5, 0, 0
1337, 0, 0, 0
1338, 0.5, 0, 0
1339, 1, 0, 0
1340, 1.5, 0, 0
1341, 2, 0, 0
1342, 2.5, 0, 0
1343, 3, 0, 0
1344, 3.5, 0, 0
1345, 4, 0, 0
1346, 4.5, 0, 0
1347, 5, 0, 0
1348, 5.5, 0, 0
1349, 6, 0, 0
1350, 6.5, 0, 0
1351, 7, 0, 0
1352, 7.5, 0, 0
1353, 8, 0, 0
1354, 8.5, 0, 0
1355, 9, 0, 0
1356, 9.5, 0, 0
1357, 10, 0, 0
1358, 10.5, 0, 0
1359, 11, 0, 0
1360, 11.5, 0, 0
1361, 12, 0, 0
1362, 12.5, 0, 0
1363, 13, 0, 0
1364, 13.5, 0, 0
1365, 14, 0, 0
1366, 14.5, 0, 0
1367, 15, 0, 0
1368, 15.5, 0, 0
1369, 16, 0, 0
1370, 16.5, 0, 0
1371, 17, 0, 0
1372, 17.5, 0, 0
1373, 18, 0, 0
1374, 18.5, 0, 0
1375, 19, 0, 0
1376, 19.5, 0, 0
1377, 20, 0, 0
1378, -20, 0.5, 0
1379, -19.5, 0.5, 0
1380, -19, 0.5, 0
1381, -18.5, 0.5, 0
1382, -18, 0.5, 0
1383, -17.5, 0.5, 0
1384, -17, 0.5, 0
1385, -16.5, 0.5, 0
1386, -16, 0.5, 0
1387, -15.5, 0.5, 0
1388, -15, 0.5, 0
1389, -14.5, 0.5, 0
1390, -14, 0.5, 0
1391, -13.5, 0.5, 0
1392, -13, 0.5, 0
1393, -12.5, 0.5, 0
1394, -12, 0.5, 0
1395, -11.5, 0.5, 0
1396, -11, 0.5, 0
1397, -10.5, 0.5, 0
1398, -10, 0.5, 0
1399, -9.5, 0.5, 0
1400, -9, 0.5, 0
1401, -8.5, 0.5, 0
1402, -8, 0.5, 0
1403, -7.5, 0.5, 0
1404, -7, 0.5, 0
1405, -6.5, 0.5, 0
1406, -6, 0.5, 0
1407, -5.5, 0.5, 0
1408, -5, 0.5, 0
1409, -4.5, 0.5, 0
1410, -4, 0.5, 0
1411, -3.5, 0.5, 0
1412, -3, 0.5, 0
1413, -2.5, 0.5, 0
1414, -2, 0.5, 0
1415, -1.5, 0.5, 0
1416, -1, 0.5, 0
1417, -0.5, 0.5, 0
1418, 0, 0.5, 0
1419, 0.5, 0.5, 0
1420, 1, 0.5, 0
1421, 1.5, 0.5, 0
1422, 2, 0.5, 0
1423, 2.5, 0.5, 0
1424, 3, 0.5, 0
1425, 3.5, 0.5, 0
1426, 4, 0.5, 0
1427, 4.5, 0.5, 0
1428, 5, 0.5, 0
1429, 5.5, 0.5, 0
1430, 6, 0.5, 0
1431, 6.5, 0.5, 0
1432, 7, 0.5, 0
1433, 7.5, 0.5, 0
1434, 8, 0.5, 0
1435, 8.5, 0.5, 0
1436, 9, 0.5, 0
1437, 9.5, 0.5, 0
1438, 10, 0.5, 0
1439, 10.5, 0.5, 0
1440, 11, 0.5, 0
1441, 11.5, 0.5, 0
1442, 12, 0.5, 0
1443, 12.5, 0.5, 0
1444, 13, 0.5, 0
1445, 13.5, 0.5, 0
1446, 14, 0.5, 0
1447, 14.5, 0.5, 0
1448, 15, 0.5, 0
1449, 15.5, 0.5, 0
1450, 16, 0.5, 0
1451, 16.5, 0.5, 0
1452, 17, 0.5, 0
1453, 17.5, 0.5, 0
1454, 18, 0.5, 0
1455, 18.5, 0.5, 0
1456, 19, 0.5, 0
1457, 19.5, 0.5, 0
1458, 20, 0.5, 0
*NODE, NSET=PUNCH
1459, -3.93923101205, -1, 4.69459271067
1460, -3.95075336238, -1, 4.62573786016
1461, -3.96107227497, -1, 4.55669240384
1462, -3.97018460657, -1, 4.48747737362
1463, -3.97808758147, -1, 4.41811385307
1464, -3.98477879237, -1, 4.34862297099
1465, -3.99025620104, -1, 4.27902589498
1466, -3.99451813902, -1, 4.20934382497
1467, -3.99756330808, -1, 4.13959798681
1468, -3.99939078063, -1, 4.06980962575
1469, -4, -1, 4
1470, -3.99939078063, -1, 3.93019037425
1471, -3.99756330808, -1, 3.86040201319
1472, -3.99451813902, -1, 3.79065617503
1473, -3.99025620104, -1, 3.72097410502
1474, -3.98477879237, -1, 3.65137702901
1475, -3.97808758147, -1, 3.58188614693
1476, -3.97018460657, -1, 3.51252262638
1477, -3.96107227497, -1, 3.44330759616
1478, -3.95075336238, -1, 3.37426213984
1479, -3.93923101205, -1, 3.30540728933
1480, -3.92650873379, -1, 3.23676401849
1481, -3.91259040294, -1, 3.16835323673
1482, -3.89748025914, -1, 3.10019578262
1483, -3.8811829051, -1, 3.0323124176
1484, -3.86370330516, -1, 2.96472381959
1485, -3.84504678375, -1, 2.89745057673
1486, -3.82521902385, -1, 2.83051318111
1487, -3.80422606518, -1, 2.7639320225
1488, -3.7820743024, -1, 2.69772738217
1489, -3.75877048314, -1, 2.6319194267
1490, -3.73432170599, -1, 2.56652820182
1491, -3.70873541827, -1, 2.50157362634
1492, -3.68201941381, -1, 2.43707548604
1493, -3.65418183057, -1, 2.3730534277
1494, -3.62523114815, -1, 2.30952695304
1495, -3.5951761852, -1, 2.24651541284
1496, -3.56402609675, -1, 2.18403800104
1497, -3.53179037144, -1, 2.12211374886
1498, -3.49847882856, -1, 2.06076151901
1499, -3.46410161514, -1, 2
1500, -3.42866920281, -1, 1.93984770036
1501, -3.39219238463, -1, 1.88032294307
1502, -3.35468227178, -1, 1.82144385994
1503, -3.31615029022, -1, 1.76322838612
1504, -3.27660817716, -1, 1.7056942546
1505, -3.2360679775, -1, 1.64885899083
1506, -3.19454204019, -1, 1.59273990739
1507, -3.15204301443, -1, 1.5373540987
1508, -3.10858384583, -1, 1.4827184358
1509, -3.06417777248, -1, 1.42884956125
1510, -3.01883832089, -1, 1.37576388404
1511, -2.97257930191, -1, 1.32347757456
1512, -2.92541480648, -1, 1.27200655975
1513, -2.87735920135, -1, 1.22136651816
1514, -2.82842712475, -1, 1.17157287525
1515, -2.77863348184, -1, 1.12264079865
1516, -2.72799344025, -1, 1.07458519352
1517, -2.67652242544, -1, 1.02742069809
1518, -2.62423611596, -1, 0.981161679109
1519, -2.57115043875, -1, 0.935822227524
1520, -2.5172815642, -1, 0.891416154172
1521, -2.4626459013, -1, 0.847956985573
1522, -2.40726009261, -1, 0.805457959811
1523, -2.35114100917, -1, 0.7639320225
1524, -2.2943057454, -1, 0.723391822844
1525, -2.23677161388, -1, 0.68384970978
1526, -2.17855614006, -1, 0.645317728218
1527, -2.11967705693, -1, 0.607807615374
1528, -2.06015229964, -1, 0.571330797192
1529, -2, -1, 0.535898384862
1530, -1.93923848099, -1, 0.501521171442
1531, -1.87788625114, -1, 0.468209628564
1532, -1.81596199896, -1, 0.435973903247
1533, -1.75348458716, -1, 0.404823814803
1534, -1.69047304696, -1, 0.374768851853
1535, -1.6269465723, -1, 0.34581816943
1536, -1.56292451396, -1, 0.31798058619
1537, -1.49842637366, -1, 0.291264581733
1538, -1.43347179818, -1, 0.265678294011
1539, -1.3680805733, -1, 0.241229516856
1540, -1.30227261783, -1, 0.217925697603
1541, -1.2360679775, -1, 0.195773934819
1542, -1.16948681889, -1, 0.174780976148
1543, -1.10254942327, -1, 0.154953216247
1544, -1.03527618041, -1, 0.136296694844
1545, -0.967687582399, -1, 0.118817094896
1546, -0.899804217375, -1, 0.102519740859
1547, -0.831646763271, -1, 0.0874095970648
1548, -0.763235981506, -1, 0.0734912662093
1549, -0.694592710668, -1, 0.0607689879512
1550, -0.625737860161, -1, 0.0492466376194
1551, -0.55669240384, -1, 0.0389277250337
1552, -0.487477373621, -1, 0.0298153934347
1553, -0.418113853071, -1, 0.0219124185269
1554, -0.348622970991, -1, 0.015221207633
1555, -0.279025894977, -1, 0.0097437989607
1556, -0.209343824972, -1, 0.0054818609817
1557, -0.13959798681, -1, 0.00243669192362
1558, -0.0698096257491, -1, 0.000609219374435
1559, 0, -1, 0
1560, 0.0698096257491, -1, 0.000609219374435
1561, 0.13959798681, -1, 0.00243669192362
1562, 0.209343824972, -1, 0.0054818609817
1563, 0.279025894977, -1, 0.0097437989607
1564, 0.348622970991, -1, 0.015221207633
1565, 0.418113853071, -1, 0.0219124185269
1566, 0.487477373621, -1, 0.0298153934347
1567, 0.55669240384, -1, 0.0389277250337
1568, 0.625737860161, -1, 0.0492466376194
1569, 0.694592710668, -1, 0.0607689879512
1570, 0.763235981506, -1, 0.0734912662093
1571, 0.831646763271, -1, 0.0874095970648
1572, 0.899804217375, -1, 0.102519740859
1573, 0.967687582399, -1, 0.118817094896
1574, 1.03527618041, -1, 0.136296694844
1575, 1.10254942327, -1, 0.154953216247
1576, 1.16948681889, -1, 0.174780976148
1577, 1.2360679775, -1, 0.195773934819
1578, 1.30227261783, -1, 0.217925697603
1579, 1.3680805733, -1, 0.241229516856
1580, 1.43347179818, -1, 0.265678294011
1581, 1.49842637366, -1, 0.291264581733
1582, 1.56292451396, -1, 0.31798058619
1583, 1.6269465723, -1, 0.34581816943
1584, 1.69047304696, -1, 0.374768851853
1585, 1.75348458716, -1, 0.404823814803
1586, 1.81596199896, -1, 0.435973903247
1587, 1.87788625114, -1, 0.468209628564
1588, 1.93923848099, -1, 0.501521171442
1589, 2, -1, 0.535898384862
1590, 2.06015229964, -1, 0.571330797192
1591, 2.11967705693, -1, 0.607807615374
1592, 2.17855614006, -1, 0.645317728218
1593, 2.23677161388, -1, 0.68384970978
1594, 2.2943057454, -1, 0.723391822844
1595, 2.35114100917, -1, 0.7639320225
1596, 2.40726009261, -1, 0.805457959811
1597, 2.4626459013, -1, 0.847956985573
1598, 2.5172815642, -1, 0.891416154172
1599, 2.57115043875, -1, 0.935822227524
1600, 2.62423611596, -1, 0.981161679109
1601, 2.67652242544, -1, 1.02742069809
1602, 2.72799344025, -1, 1.07458519352
1603, 2.77863348184, -1, 1.12264079865
1604, 2.82842712475, -1, 1.17157287525
1605, 2.87735920135, -1, 1.22136651816
1606, 2.92541480648, -1, 1.27200655975
1607, 2.97257930191, -1, 1.32347757456
1608, 3.01883832089, -1, 1.37576388404
1609, 3.06417777248, -1, 1.42884956125
1610, 3.10858384583, -1, 1.4827184358
1611, 3.15204301443, -1, 1.5373540987
1612, 3.19454204019, -1, 1.59273990739
1613, 3.2360679775, -1, 1.64885899083
1614, 3.27660817716, -1, 1.7056942546
1615, 3.31615029022, -1, 1.76322838612
1616, 3.35468227178, -1, 1.82144385994
1617, 3.39219238463, -1, 1.88032294307
1618, 3.42866920281, -1, 1.93984770036
1619, 3.46410161514, -1, 2
1620, 3.49847882856, -1, 2.06076151901
1621, 3.53179037144, -1, 2.12211374886
1622, 3.56402609675, -1, 2.18403800104
1623, 3.5951761852, -1, 2.24651541284
1624, 3.62523114815, -1, 2.30952695304
1625, 3.65418183057, -1, 2.3730534277
1626, 3.68201941381, -1, 2.43707548604
1627, 3.70873541827, -1, 2.50157362634
1628, 3.73432170599, -1, 2.56652820182
1629, 3.75877048314, -1, 2.6319194267
1630, 3.7820743024, -1, 2.69772738217
1631, 3.80422606518, -1, 2.7639320225
1632, 3.82521902385, -1, 2.83051318111
1633, 3.84504678375, -1, 2.89745057673
1634, 3.86370330516, -1, 2.96472381959
1635, 3.8811829051, -1, 3.0323124176
1636, 3.89748025914, -1, 3.10019578262
1637, 3.91259040294, -1, 3.16835323673
1638, 3.92650873379, -1, 3.23676401849
1639, 3.93923101205, -1, 3.30540728933
1640, 3.95075336238, -1, 3.37426213984
1641, 3.96107227497, -1, 3.44330759616
1642, 3.97018460657, -1, 3.51252262638
1643, 3.97808758147, -1, 3.58188614693
1644, 3.98477879237, -1, 3.65137702901
1645, 3.99025620104, -1, 3.72097410502
1646, 3.99451813902, -1, 3.79065617503
1647, 3.99756330808, -1, 3.86040201319
1648, 3.99939078063, -1, 3.93019037425
1649, 4, -1, 4
1650, 3.99939078063, -1, 4.06980962575
1651, 3.99756330808, -1, 4.13959798681
1652, 3.99451813902, -1, 4.20934382497
1653, 3.99025620104, -1, 4.27902589498
1654, 3.98477879237, -1, 4.34862297099
1655, 3.97808758147, -1, 4.41811385307
1656, 3.97018460657, -1, 4.48747737362
1657, 3.96107227497, -1, 4.55669240384
1658, 3.95075336238, -1, 4.62573786016
1659, 3.93923101205, -1, 4.69459271067
1660, -3.93923101205, 1.5, 4.69459271067
1661, -3.95075336238, 1.5, 4.62573786016
1662, -3.96107227497, 1.5, 4.55669240384
1663, -3.97018460657, 1.5, 4.48747737362
1664, -3.97808758147, 1.5, 4.41811385307
1665, -3.98477879237, 1.5, 4.34862297099
1666, -3.99025620104, 1.5, 4.27902589498
1667, -3.99451813902, 1.5, 4.20934382497
1668, -3.99756330808, 1.5, 4.13959798681
1669, -3.99939078063, 1.5, 4.06980962575
1670, -4, 1.5, 4
1671, -3.99939078063, 1.5, 3.93019037425
1672, -3.99756330808, 1.5, 3.86040201319
1673, -3.99451813902, 1.5, 3.79065617503
1674, -3.99025620104, 1.5, 3.72097410502
1675, -3.98477879237, 1.5, 3.65137702901
1676, -3.97808758147, 1.5, 3.58188614693
1677, -3.97018460657, 1.5, 3.51252262638
1678, -3.96107227497, 1.5, 3.44330759616
1679, -3.95075336238, 1.5, 3.37426213984
1680, -3.93923101205, 1.5, 3.30540728933
1681, -3.92650873379, 1.5, 3.23676401849
1682, -3.91259040294, 1.5, 3.16835323673
1683, -3.89748025914, 1.5, 3.10019578262
1684, -3.8811829051, 1.5, 3.0323124176
1685, -3.86370330516, 1.5, 2.96472381959
1686, -3.84504678375, 1.5, 2.89745057673
1687, -3.82521902385, 1.5, 2.83051318111
1688, -3.80422606518, 1.5, 2.7639320225
1689, -3.7820743024, 1.5, 2.69772738217
1690, -3.75877048314, 1.5, 2.6319194267
1691, -3.73432170599, 1.5, 2.56652820182
1692, -3.70873541827, 1.5, 2.50157362634
1693, -3.68201941381, 1.5, 2.43707548604
1694, -3.65418183057, 1.5, 2.3730534277
1695, -3.62523114815, 1.5, 2.30952695304
1696, -3.5951761852, 1.5, 2.24651541284
1697, -3.56402609675, 1.5, 2.18403800104
1698, -3.53179037144, 1.5, 2.12211374886
1699, -3.49847882856, 1.5, 2.06076151901
1700, -3.46410161514, 1.5, 2
1701, -3.42866920281, 1.5, 1.93984770036
1702, -3.39219238463, 1.5, 1.88032294307
1703, -3.35468227178, 1.5, 1.82144385994
1704, -3.31615029022, 1.5, 1.76322838612
1705, -3.27660817716, 1.5, 1.7056942546
1706, -3.2360679775, 1.5, 1.64885899083
1707, -3.19454204019, 1.5, 1.59273990739
1708, -3.15204301443, 1.5, 1.5373540987
1709, -3.10858384583, 1.5, 1.4827184358
1710, -3.06417777248, 1.5, 1.42884956125
1711, -3.01883832089, 1.5, 1.37576388404
1712, -2.97257930191, 1.5, 1.32347757456
1713, -2.92541480648, 1.5, 1.27200655975
1714, -2.87735920135, 1.5, 1.22136651816
1715, -2.82842712475, 1.5, 1.17157287525
1716, -2.77863348184, 1.5, 1.12264079865
1717, -2.72799344025, 1.5, 1.07458519352
1718, -2.67652242544, 1.5, 1.02742069809
1719, -2.62423611596, 1.5, 0.981161679109
1720, -2.57115043875, 1.5, 0.935822227524
1721, -2.5172815642, 1.5, 0.891416154172
1722, -2.4626459013, 1.5, 0.847956985573
1723, -2.40726009261, 1.5, 0.805457959811
1724, -2.35114100917, 1.5, 0.7639320225
1725, -2.2943057454, 1.5, 0.723391822844
1726, -2.23677161388, 1.5, 0.68384970978
1727, -2.17855614006, 1.5, 0.645317728218
1728, -2.11967705693, 1.5, 0.607807615374
1729, -2.06015229964, 1.5, 0.571330797192
1730, -2, 1.5, 0.535898384862
1731, -1.93923848099, 1.5, 0.501521171442
1732, -1.87788625114, 1.5, 0.468209628564
1733, -1.81596199896, 1.5, 0.435973903247
1734, -1.75348458716, 1.5, 0.404823814803
1735, -1.69047304696, 1.5, 0.374768851853
1736, -1.6269465723, 1.5, 0.34581816943
1737, -1.56292451396, 1.5, 0.31798058619
1738, -1.49842637366, 1.5, 0.291264581733
1739, -1.43347179818, 1.5, 0.265678294011
1740, -1.3680805733, 1.5, 0.241229516856
1741, -1.30227261783, 1.5, 0.217925697603
1742, -1.2360679775, 1.5, 0.195773934819
1743, -1.16948681889, 1.5, 0.174780976148
1744, -1.10254942327, 1.5, 0.154953216247
1745, -1.03527618041, 1.5, 0.136296694844
1746, -0.967687582399, 1.5, 0.118817094896
1747, -0.899804217375, 1.5, 0.102519740859
1748, -0.831646763271, 1.5, 0.0874095970648
1749, -0.763235981506, 1.5, 0.0734912662093
1750, -0.694592710668, 1.5, 0.0607689879512
1751, -0.625737860161, 1.5, 0.0492466376194
1752, -0.55669240384, 1.5, 0.0389277250337
1753, -0.487477373621, 1.5, 0.0298153934347
1754, -0.418113853071, 1.5, 0.0219124185269
1755, -0.348622970991, 1.5, 0.015221207633
1756, -0.279025894977, 1.5, 0.0097437989607
1757, -0.209343824972, 1.5, 0.0054818609817
1758, -0.13959798681, 1.5, 0.00243669192362
1759, -0.0698096257491, 1.5, 0.000609219374435
1760, 0, 1.5, 0
1761, 0.0698096257491, 1.5, 0.000609219374435
1762, 0.13959798681, 1.5, 0.00243669192362
1763, 0.209343824972, 1.5, 0.0054818609817
1764, 0.279025894977, 1.5, 0.0097437989607
1765, 0.348622970991, 1.5, 0.015221207633
1766, 0.418113853071, 1.5, 0.0219124185269
1767, 0.487477373621, 1.5, 0.0298153934347
1768, 0.55669240384, 1.5, 0.0389277250337
1769, 0.625737860161, 1.5, 0.0492466376194
1770, 0.694592710668, 1.5, 0.0607689879512
1771, 0.763235981506, 1.5, 0.0734912662093
1772, 0.831646763271, 1.5, 0.0874095970648
1773, 0.899804217375, 1.5, 0.102519740859
1774, 0.967687582399, 1.5, 0.118817094896
1775, 1.03527618041, 1.5, 0.136296694844
1776, 1.10254942327, 1.5, 0.154953216247
1777, 1.16948681889, 1.5, 0.174780976148
1778, 1.2360679775, 1.5, 0.195773934819
1779, 1.30227261783, 1.5, 0.217925697603
1780, 1.3680805733, 1.5, 0.241229516856
1781, 1.43347179818, 1.5, 0.265678294011
1782, 1.49842637366, 1.5, 0.291264581733
1783, 1.56292451396, 1.5, 0.31798058619
1784, 1.6269465723, 1.5, 0.34581816943
1785, 1.69047304696, 1.5, 0.374768851853
1786, 1.75348458716, 1.5, 0.404823814803
1787, 1.81596199896, 1.5, 0.435973903247
1788, 1.87788625114, 1.5, 0.468209628564
1789, 1.93923848099, 1.5, 0.501521171442
1790, 2, 1.5, 0.535898384862
1791, 2.06015229964, 1.5, 0.571330797192
1792, 2.11967705693, 1.5, 0.607807615374
1793, 2.17855614006, 1.5, 0.645317728218
1794, 2.23677161388, 1.5, 0.68384970978
1795, 2.2943057454, 1.5, 0.723391822844
1796, 2.35114100917, 1.5, 0.7639320225
1797, 2.40726009261, 1.5, 0.805457959811
1798, 2.4626459013, 1.5, 0.847956985573
1799, 2.5172815642, 1.5, 0.891416154172
1800, 2.57115043875, 1.5, 0.935822227524
1801, 2.62423611596, 1.5, 0.981161679109
1802, 2.67652242544, 1.5, 1.02742069809
1803, 2.72799344025, 1.5, 1.07458519352
1804, 2.77863348184, 1.5, 1.12264079865
1805, 2.82842712475, 1.5, 1.17157287525
1806, 2.87735920135, 1.5, 1.22136651816
1807, 2.92541480648, 1.5, 1.27200655975
1808, 2.97257930191, 1.5, 1.32347757456
1809, 3.01883832089, 1.5, 1.37576388404
1810, 3.06417777248, 1.5, 1.42884956125
1811, 3.10858384583, 1.5, 1.4827184358
1812, 3.15204301443, 1.5, 1.5373540987
1813, 3.19454204019, 1.5, 1.59273990739
1814, 3.2360679775, 1.5, 1.64885899083
1815, 3.27660817716, 1.5, 1.7056942546
1816, 3.31615029022, 1.5, 1.76322838612
1817, 3.35468227178, 1.5, 1.82144385994
1818, 3.39219238463, 1.5, 1.88032294307
1819, 3.42866920281, 1.5, 1.93984770036
1820, 3.46410161514, 1.5, 2
1821, 3.49847882856, 1.5, 2.06076151901
1822, 3.53179037144, 1.5, 2.12211374886
1823, 3.56402609675, 1.5, 2.18403800104
1824, 3.5951761852, 1.5, 2.24651541284
1825, 3.62523114815, 1.5, 2.30952695304
1826, 3.65418183057, 1.5, 2.3730534277
1827, 3.68201941381, 1.5, 2.43707548604
1828, 3.70873541827, 1.5, 2.50157362634
1829, 3.73432170599, 1.5, 2.56652820182
1830, 3.75877048314, 1.5, 2.6319194267
1831, 3.7820743024, 1.5, 2.69772738217
1832, 3.80422606518, 1.5, 2.7639320225
1833, 3.82521902385, 1.5, 2.83051318111
1834, 3.84504678375, 1.5, 2.89745057673
1835, 3.86370330516, 1.5, 2.96472381959
1836, 3.8811829051, 1.5, 3.0323124176
1837, 3.89748025914, 1.5, 3.10019578262
1838, 3.91259040294, 1.5, 3.16835323673
1839, 3.92650873379, 1.5, 3.23676401849
1840, 3.93923101205, 1.5, 3.30540728933
1841, 3.95075336238, 1.5, 3.37426213984
1842, 3.96107227497, 1.5, 3.44330759616
1843, 3.97018460657, 1.5, 3.51252262638
1844, 3.97808758147, 1.5, 3.58188614693
1845, 3.98477879237, 1.5, 3.65137702901
1846, 3.99025620104, 1.5, 3.72097410502
1847, 3.99451813902, 1.5, 3.79065617503
1848, 3.99756330808, 1.5, 3.86040201319
1849, 3.99939078063, 1.5, 3.93019037425
1850, 4, 1.5, 4
1851, 3.99939078063, 1.5, 4.06980962575
1852, 3.99756330808, 1.5, 4.13959798681
1853, 3.99451813902, 1.5, 4.20934382497
1854, 3.99025620104, 1.5, 4.27902589498
1855, 3.98477879237, 1.5, 4.34862297099
1856, 3.97808758147, 1.5, 4.41811385307
1857, 3.97018460657, 1.5, 4.48747737362
1858, 3.96107227497, 1.5, 4.55669240384
1859, 3.95075336238, 1.5, 4.62573786016
1860, 3.93923101205, 1.5, 4.69459271067
1861, -3.44682713554, -1, 4.60776862183
1862, -3.45690919208, -1, 4.54752062764
1863, -3.4659382406, -1, 4.48710585336
1864, -3.47391153074, -1, 4.42654270192
1865, -3.48082663379, -1, 4.36584962144
1866, -3.48668144332, -1, 4.30504509962
1867, -3.49147417591, -1, 4.2441476581
1868, -3.49520337164, -1, 4.18317584685
1869, -3.49786789457, -1, 4.12214823846
1870, -3.49946693305, -1, 4.06108342253
1871, -3.5, -1, 4
1872, -3.49946693305, -1, 3.93891657747
1873, -3.49786789457, -1, 3.87785176154
1874, -3.49520337164, -1, 3.81682415315
1875, -3.49147417591, -1, 3.7558523419
1876, -3.48668144332, -1, 3.69495490038
1877, -3.48082663379, -1, 3.63415037856
1878, -3.47391153074, -1, 3.57345729808
1879, -3.4659382406, -1, 3.51289414664
1880, -3.45690919208, -1, 3.45247937236
1881, -3.44682713554, -1, 3.39223137817
1882, -3.43569514207, -1, 3.33216851618
1883, -3.42351660257, -1, 3.27230908214
1884, -3.41029522675, -1, 3.2126713098
1885, -3.39603504197, -1, 3.1532733654
1886, -3.38074039201, -1, 3.09413334214
1887, -3.36441593578, -1, 3.03526925464
1888, -3.34706664587, -1, 2.97669903347
1889, -3.32869780703, -1, 2.91844051969
1890, -3.3093150146, -1, 2.8605114594
1891, -3.28892417275, -1, 2.80292949836
1892, -3.26753149274, -1, 2.74571217659
1893, -3.24514349098, -1, 2.68887692304
1894, -3.22176698708, -1, 2.63244105029
1895, -3.19740910175, -1, 2.57642174923
1896, -3.17207725463, -1, 2.52083608391
1897, -3.14577916205, -1, 2.46570098624
1898, -3.11852283466, -1, 2.41103325091
1899, -3.09031657501, -1, 2.35684953025
1900, -3.06116897499, -1, 2.30316632914
1901, -3.03108891325, -1, 2.25
1902, -3.00008555246, -1, 2.19736673781
1903, -2.96816833655, -1, 2.14528257518
1904, -2.93534698781, -1, 2.09376337745
1905, -2.90163150394, -1, 2.04282483785
1906, -2.86703215501, -1, 1.99248247277
1907, -2.83155948031, -1, 1.94275161698
1908, -2.79522428517, -1, 1.89364741897
1909, -2.75803763762, -1, 1.84518483636
1910, -2.7200108651, -1, 1.79737863133
1911, -2.68115555092, -1, 1.7502433661
1912, -2.64148353078, -1, 1.70379339853
1913, -2.60100688917, -1, 1.65804287774
1914, -2.55973795567, -1, 1.61300573978
1915, -2.51768930119, -1, 1.56869570339
1916, -2.47487373415, -1, 1.52512626585
1917, -2.43130429661, -1, 1.48231069881
1918, -2.38699426022, -1, 1.44026204433
1919, -2.34195712226, -1, 1.39899311083
1920, -2.29620660147, -1, 1.35851646922
1921, -2.2497566339, -1, 1.31884444908
1922, -2.20262136867, -1, 1.2799891349
1923, -2.15481516364, -1, 1.24196236238
1924, -2.10635258103, -1, 1.20477571483
1925, -2.05724838302, -1, 1.16844051969
1926, -2.00751752723, -1, 1.13296784499
1927, -1.95717516215, -1, 1.09836849606
1928, -1.90623662255, -1, 1.06465301219
1929, -1.85471742482, -1, 1.03183166345
1930, -1.80263326219, -1, 0.999914447543
1931, -1.75, -1, 0.968911086754
1932, -1.69683367086, -1, 0.938831025012
1933, -1.64315046975, -1, 0.909683424994
1934, -1.58896674909, -1, 0.881477165341
1935, -1.53429901376, -1, 0.854220837953
1936, -1.47916391609, -1, 0.827922745372
1937, -1.42357825077, -1, 0.802590898251
1938, -1.36755894971, -1, 0.778233012916
1939, -1.31112307696, -1, 0.754856509016
1940, -1.25428782341, -1, 0.73246850726
1941, -1.19707050164, -1, 0.711075827249
1942, -1.1394885406, -1, 0.690684985402
1943, -1.08155948031, -1, 0.671302192967
1944, -1.02330096653, -1, 0.652933354129
1945, -0.964730745359, -1, 0.635584064216
1946, -0.905866657859, -1, 0.619259607988
1947, -0.846726634599, -1, 0.603964958034
1948, -0.787328690204, -1, 0.589704773252
1949, -0.727690917862, -1, 0.576483397432
1950, -0.667831483818, -1, 0.564304857933
1951, -0.607768621834, -1, 0.553172864457
1952, -0.547520627641, -1, 0.543090807917
1953, -0.48710585336, -1, 0.534061759405
1954, -0.426542701918, -1, 0.526088469255
1955, -0.365849621437, -1, 0.519173366211
1956, -0.305045099617, -1, 0.513318556679
1957, -0.244147658104, -1, 0.508525824091
1958, -0.18317584685, -1, 0.504796628359
1959, -0.122148238459, -1, 0.502132105433
1960, -0.0610834225305, -1, 0.500533066953
1961, 0, -1, 0.5
1962, 0.0610834225305, -1, 0.500533066953
1963, 0.122148238459, -1, 0.502132105433
1964, 0.18317584685, -1, 0.504796628359
1965, 0.244147658104, -1, 0.508525824091
1966, 0.305045099617, -1, 0.513318556679
1967, 0.365849621437, -1, 0.519173366211
1968, 0.426542701918, -1, 0.526088469255
1969, 0.48710585336, -1, 0.534061759405
1970, 0.547520627641, -1, 0.543090807917
1971, 0.607768621834, -1, 0.553172864457
1972, 0.667831483818, -1, 0.564304857933
1973, 0.727690917862, -1, 0.576483397432
1974, 0.787328690204, -1, 0.589704773252
1975, 0.846726634599, -1, 0.603964958034
1976, 0.905866657859, -1, 0.619259607988
1977, 0.964730745359, -1, 0.635584064216
1978, 1.02330096653, -1, 0.652933354129
1979, 1.08155948031, -1, 0.671302192967
1980, 1.1394885406, -1, 0.690684985402
1981, 1.19707050164, -1, 0.711075827249
1982, 1.25428782341, -1, 0.73246850726
1983, 1.31112307696, -1, 0.754856509016
1984, 1.36755894971, -1, 0.778233012916
1985, 1.42357825077, -1, 0.802590898251
1986, 1.47916391609, -1, 0.827922745372
1987, 1.53429901376, -1, 0.854220837953
1988, 1.58896674909, -1, 0.881477165341
1989, 1.64315046975, -1, 0.909683424994
1990, 1.69683367086, -1, 0.938831025012
1991, 1.75, -1, 0.968911086754
1992, 1.80263326219, -1, 0.999914447543
1993, 1.85471742482, -1, 1.03183166345
1994, 1.90623662255, -1, 1.06465301219
1995, 1.95717516215, -1, 1.09836849606
1996, 2.00751752723, -1, 1.13296784499
1997, 2.05724838302, -1, 1.16844051969
1998, 2.10635258103, -1, 1.20477571483
1999, 2.15481516364, -1, 1.24196236238
2000, 2.20262136867, -1, 1.2799891349
2001, 2.2497566339, -1, 1.31884444908
2002, 2.29620660147, -1, 1.35851646922
2003, 2.34195712226, -1, 1.39899311083
2004, 2.38699426022, -1, 1.44026204433
2005, 2.43130429661, -1, 1.48231069881
2006, 2.47487373415, -1, 1.52512626585
2007, 2.51768930119, -1, 1.56869570339
2008, 2.55973795567, -1, 1.61300573978
2009, 2.60100688917, -1, 1.65804287774
2010, 2.64148353078, -1, 1.70379339853
2011, 2.68115555092, -1, 1.7502433661
2012, 2.7200108651, -1, 1.79737863133
2013, 2.75803763762, -1, 1.84518483636
2014, 2.79522428517, -1, 1.89364741897
2015, 2.83155948031, -1, 1.94275161698
2016, 2.86703215501, -1, 1.99248247277
2017, 2.90163150394, -1, 2.04282483785
2018, 2.93534698781, -1, 2.09376337745
2019, 2.96816833655, -1, 2.14528257518
2020, 3.00008555246, -1, 2.19736673781
2021, 3.03108891325, -1, 2.25
2022, 3.06116897499, -1, 2.30316632914
2023, 3.09031657501, -1, 2.35684953025
2024, 3.11852283466, -1, 2.41103325091
2025, 3.14577916205, -1, 2.46570098624
2026, 3.17207725463, -1, 2.52083608391
2027, 3.19740910175, -1, 2.57642174923
2028, 3.22176698708, -1, 2.63244105029
2029, 3.24514349098, -1, 2.68887692304
2030, 3.26753149274, -1, 2.74571217659
2031, 3.28892417275, -1, 2.80292949836
2032, 3.3093150146, -1, 2.8605114594
2033, 3.32869780703, -1, 2.91844051969
2034, 3.34706664587, -1, 2.97669903347
2035, 3.36441593578, -1, 3.03526925464
2036, 3.38074039201, -1, 3.09413334214
2037, 3.39603504197, -1, 3.1532733654
2038, 3.41029522675, -1, 3.2126713098
2039, 3.42351660257, -1, 3.27230908214
2040, 3.43569514207, -1, 3.33216851618
2041, 3.44682713554, -1, 3.39223137817
2042, 3.45690919208, -1, 3.45247937236
2043, 3.4659382406, -1, 3.51289414664
2044, 3.47391153074, -1, 3.57345729808
2045, 3.48082663379, -1, 3.63415037856
2046, 3.48668144332, -1, 3.69495490038
2047, 3.49147417591, -1, 3.7558523419
2048, 3.49520337164, -1, 3.81682415315
2049, 3.49786789457, -1, 3.87785176154
2050, 3.49946693305, -1, 3.93891657747
2051, 3.5, -1, 4
2052, 3.49946693305, -1, 4.06108342253
2053, 3.49786789457, -1, 4.12214823846
2054, 3.49520337164, -1, 4.18317584685
2055, 3.49147417591, -1, 4.2441476581
2056, 3.48668144332, -1, 4.30504509962
2057, 3.48082663379, -1, 4.36584962144
2058, 3.47391153074, -1, 4.42654270192
2059, 3.4659382406, -1, 4.48710585336
2060, 3.45690919208, -1, 4.54752062764
2061, 3.44682713554, -1, 4.60776862183
2062, -3.44682713554, 1.5, 4.60776862183
2063, -3.45690919208, 1.5, 4.54752062764
2064, -3.4659382406, 1.5, 4.48710585336
2065, -3.47391153074, 1.5, 4.42654270192
2066, -3.48082663379, 1.5, 4.36584962144
2067, -3.48668144332, 1.5, 4.30504509962
2068, -3.49147417591, 1.5, 4.2441476581
2069, -3.49520337164, 1.5, 4.18317584685
2070, -3.49786789457, 1.5, 4.12214823846
2071, -3.49946693305, 1.5, 4.06108342253
2072, -3.5, 1.5, 4
2073, -3.49946693305, 1.5, 3.93891657747
2074, -3.49786789457, 1.5, 3.87785176154
2075, -3.49520337164, 1.5, 3.81682415315
2076, -3.49147417591, 1.5, 3.7558523419
2077, -3.48668144332, 1.5, 3.69495490038
2078, -3.48082663379, 1.5, 3.63415037856
2079, -3.47391153074, 1.5, 3.57345729808
2080, -3.4659382406, 1.5, 3.51289414664
2081, -3.45690919208, 1.5, 3.45247937236
2082, -3.44682713554, 1.5, 3.39223137817
2083, -3.43569514207, 1.5, 3.33216851618
2084, -3.42351660257, 1.5, 3.27230908214
2085, -3.41029522675, 1.5, 3.2126713098
2086, -3.39603504197, 1.5, 3.1532733654
2087, -3.38074039201, 1.5, 3.09413334214
2088, -3.36441593578, 1.5, 3.03526925464
2089, -3.34706664587, 1.5, 2.97669903347
2090, -3.32869780703, 1.5, 2.91844051969
2091, -3.3093150146, 1.5, 2.8605114594
2092, -3.28892417275, 1.5, 2.80292949836
2093, -3.26753149274, 1.5, 2.74571217659
2094, -3.24514349098, 1.5, 2.68887692304
2095, -3.22176698708, 1.5, 2.63244105029
2096, -3.19740910175, 1.5, 2.57642174923
2097, -3.17207725463, 1.5, 2.52083608391
2098, -3.14577916205, 1.5, 2.46570098624
2099, -3.11852283466, 1.5, 2.41103325091
2100, -3.09031657501, 1.5, 2.35684953025
2101, -3.06116897499, 1.5, 2.30316632914
2102, -3.03108891325, 1.5, 2.25
2103, -3.00008555246, 1.5, 2.19736673781
2104, -2.96816833655, 1.5, 2.14528257518
2105, -2.93534698781, 1.5, 2.09376337745
2106, -2.90163150394, 1.5, 2.04282483785
2107, -2.86703215501, 1.5, 1.99248247277
2108, -2.83155948031, 1.5, 1.94275161698
2109, -2.79522428517, 1.5, 1.89364741897
2110, -2.75803763762, 1.5, 1.84518483636
2111, -2.7200108651, 1.5, 1.79737863133
2112, -2.68115555092, 1.5, 1.7502433661
2113, -2.64148353078, 1.5, 1.70379339853
2114, -2.60100688917, 1.5, 1.65804287774
2115, -2.55973795567, 1.5, 1.61300573978
2116, -2.51768930119, 1.5, 1.56869570339
2117, -2.47487373415, 1.5, 1.52512626585
2118, -2.43130429661, 1.5, 1.48231069881
2119, -2.38699426022, 1.5, 1.44026204433
2120, -2.34195712226, 1.5, 1.39899311083
2121, -2.29620660147, 1.5, 1.35851646922
2122, -2.2497566339, 1.5, 1.31884444908
2123, -2.20262136867, 1.5, 1.2799891349
2124, -2.15481516364, 1.5, 1.24196236238
2125, -2.10635258103, 1.5, 1.20477571483
2126, -2.05724838302, 1.5, 1.16844051969
2127, -2.00751752723, 1.5, 1.13296784499
2128, -1.95717516215, 1.5, 1.09836849606
2129, -1.90623662255, 1.5, 1.06465301219
2130, -1.85471742482, 1.5, 1.03183166345
2131, -1.80263326219, 1.5, 0.999914447543
2132, -1.75, 1.5, 0.968911086754
2133, -1.69683367086, 1.5, 0.938831025012
2134, -1.64315046975, 1.5, 0.909683424994
2135, -1.58896674909, 1.5, 0.881477165341
2136, -1.53429901376, 1.5, 0.854220837953
2137, -1.47916391609, 1.5, 0.827922745372
2138, -1.42357825077, 1.5, 0.802590898251
2139, -1.36755894971, 1.5, 0.778233012916
2140, -1.31112307696, 1.5, 0.754856509016
2141, -1.25428782341, 1.5, 0.73246850726
2142, -1.19707050164, 1.5, 0.711075827249
2143, -1.1394885406, 1.5, 0.690684985402
2144, -1.08155948031, 1.5, 0.671302192967
2145, -1.02330096653, 1.5, 0.652933354129
2146, -0.964730745359, 1.5, 0.635584064216
2147, -0.905866657859, 1.5, 0.619259607988
2148, -0.846726634599, 1.5, 0.603964958034
2149, -0.787328690204, 1.5, 0.589704773252
2150, -0.727690917862, 1.5, 0.576483397432
2151, -0.667831483818, 1.5, 0.564304857933
2152, -0.607768621834, 1.5, 0.553172864457
2153, -0.547520627641, 1.5, 0.543090807917
2154, -0.48710585336, 1.5, 0.534061759405
2155, -0.426542701918, 1.5, 0.526088469255
2156, -0.365849621437, 1.5, 0.519173366211
2157, -0.305045099617, 1.5, 0.513318556679
2158, -0.244147658104, 1.5, 0.508525824091
2159, -0.18317584685, 1.5, 0.504796628359
2160, -0.122148238459, 1.5, 0.502132105433
2161, -0.0610834225305, 1.5, 0.500533066953
2162, 0, 1.5, 0.5
2163, 0.0610834225305, 1.5, 0.500533066953
2164, 0.122148238459, 1.5, 0.502132105433
2165, 0.18317584685, 1.5, 0.504796628359
2166, 0.244147658104, 1.5, 0.508525824091
2167, 0.305045099617, 1.5, 0.513318556679
2168, 0.365849621437, 1.5, 0.519173366211
2169, 0.426542701918, 1.5, 0.526088469255
2170, 0.48710585336, 1.5, 0.534061759405
2171, 0.547520627641, 1.5, 0.543090807917
2172, 0.607768621834, 1.5, 0.553172864457
2173, 0.667831483818, 1.5, 0.564304857933
2174, 0.727690917862, 1.5, 0.576483397432
2175, 0.787328690204, 1.5, 0.589704773252
2176, 0.846726634599, 1.5, 0.603964958034
2177, 0.905866657859, 1.5, 0.619259607988
2178, 0.964730745359, 1.5, 0.635584064216
2179, 1.02330096653, 1.5, 0.652933354129
2180, 1.08155948031, 1.5, 0.671302192967
2181, 1.1394885406, 1.5, 0.690684985402
2182, 1.19707050164, 1.5, 0.711075827249
2183, 1.25428782341, 1.5, 0.73246850726
2184, 1.31112307696, 1.5, 0.754856509016
2185, 1.36755894971, 1.5, 0.778233012916
2186, 1.42357825077, 1.5, 0.802590898251
2187, 1.47916391609, 1.5, 0.827922745372
2188, 1.53429901376, 1.5, 0.854220837953
2189, 1.58896674909, 1.5, 0.881477165341
2190, 1.64315046975, 1.5, 0.909683424994
2191, 1.69683367086, 1.5, 0.938831025012
2192, 1.75, 1.5, 0.968911086754
2193, 1.80263326219, 1.5, 0.999914447543
2194, 1.85471742482, 1.5, 1.03183166345
2195, 1.90623662255, 1.5, 1.06465301219
2196, 1.95717516215, 1.5, 1.09836849606
2197, 2.00751752723, 1.5, 1.13296784499
2198, 2.05724838302, 1.5, 1.16844051969
2199, 2.10635258103, 1.5, 1.20477571483
2200, 2.15481516364, 1.5, 1.24196236238
2201, 2.20262136867, 1.5, 1.2799891349
2202, 2.2497566339, 1.5, 1.31884444908
2203, 2.29620660147, 1.5, 1.35851646922
2204, 2.34195712226, 1.5, 1.39899311083
2205, 2.38699426022, 1.5, 1.44026204433
2206, 2.43130429661, 1.5, 1.48231069881
2207, 2.47487373415, 1.5, 1.52512626585
2208, 2.51768930119, 1.5, 1.56869570339
2209, 2.55973795567, 1.5, 1.61300573978
2210, 2.60100688917, 1.5, 1.65804287774
2211, 2.64148353078, 1.5, 1.70379339853
2212, 2.68115555092, 1.5, 1.7502433661
2213, 2.7200108651, 1.5, 1.79737863133
2214, 2.75803763762, 1.5, 1.84518483636
2215, 2.79522428517, 1.5, 1.89364741897
2216, 2.83155948031, 1.5, 1.94275161698
2217, 2.86703215501, 1.5, 1.99248247277
2218, 2.90163150394, 1.5, 2.04282483785
2219, 2.93534698781, 1.5, 2.09376337745
2220, 2.96816833655, 1.5, 2.14528257518
2221, 3.00008555246, 1.5, 2.19736673781
2222, 3.03108891325, 1.5, 2.25
2223, 3.06116897499, 1.5, 2.30316632914
2224, 3.09031657501, 1.5, 2.35684953025
2225, 3.11852283466, 1.5, 2.41103325091
2226, 3.14577916205, 1.5, 2.46570098624
2227, 3.17207725463, 1.5, 2.52083608391
2228, 3.19740910175, 1.5, 2.57642174923
2229, 3.22176698708, 1.5, 2.63244105029
2230, 3.24514349098, 1.5, 2.68887692304
2231, 3.26753149274, 1.5, 2.74571217659
2232, 3.28892417275, 1.5, 2.80292949836
2233, 3.3093150146, 1.5, 2.8605114594
2234, 3.32869780703, 1.5, 2.91844051969
2235, 3.34706664587, 1.5, 2.97669903347
2236, 3.36441593578, 1.5, 3.03526925464
2237, 3.38074039201, 1.5, 3.09413334214
2238, 3.39603504197, 1.5, 3.1532733654
2239, 3.41029522675, 1.5, 3.2126713098
2240, 3.42351660257, 1.5, 3.27230908214
2241, 3.43569514207, 1.5, 3.33216851618
2242, 3.44682713554, 1.5, 3.39223137817
2243, 3.45690919208, 1.5, 3.45247937236
2244, 3.4659382406, 1.5, 3.51289414664
2245, 3.47391153074, 1.5, 3.57345729808
2246, 3.48082663379, 1.5, 3.63415037856
2247, 3.48668144332, 1.5, 3.69495490038
2248, 3.49147417591, 1.5, 3.7558523419
2249, 3.49520337164, 1.5, 3.81682415315
2250, 3.49786789457, 1.5, 3.87785176154
2251, 3.49946693305, 1.5, 3.93891657747
2252, 3.5, 1.5, 4
2253, 3.49946693305, 1.5, 4.06108342253
2254, 3.49786789457, 1.5, 4.12214823846
2255, 3.49520337164, 1.5, 4.18317584685
2256, 3.49147417591, 1.5, 4.2441476581
2257, 3.48668144332, 1.5, 4.30504509962
2258, 3.48082663379, 1.5, 4.36584962144
2259, 3.47391153074, 1.5, 4.42654270192
2260, 3.4659382406, 1.5, 4.48710585336
2261, 3.45690919208, 1.5, 4.54752062764
2262, 3.44682713554, 1.5, 4.60776862183
*ELEMENT, TYPE=C3D8I, ELSET=SHEET
1, 1, 2, 83, 82, 163, 164, 245, 244
2, 2, 3, 84, 83, 164, 165, 246, 245
3, 3, 4, 85, 84, 165, 166, 247, 246
4, 4, 5, 86, 85, 166, 167, 248, 247
5, 5, 6, 87, 86, 167, 168, 249, 248
6, 6, 7, 88, 87, 168, 169, 250, 249
7, 7, 8, 89, 88, 169, 170, 251, 250
8, 8, 9, 90, 89, 170, 171, 252, 251
9, 9, 10, 91, 90, 171, 172, 253, 252
10, 10, 11, 92, 91, 172, 173, 254, 253
11, 11, 12, 93, 92, 173, 174, 255, 254
12, 12, 13, 94, 93, 174, 175, 256, 255
13, 13, 14, 95, 94, 175, 176, 257, 256
14, 14, 15, 96, 95, 176, 177, 258, 257
15, 15, 16, 97, 96, 177, 178, 259, 258
16, 16, 17, 98, 97, 178, 179, 260, 259
17, 17, 18, 99, 98, 179, 180, 261, 260
18, 18, 19, 100, 99, 180, 181, 262, 261
19, 19, 20, 101, 100, 181, 182, 263, 262
20, 20, 21, 102, 101, 182, 183, 264, 263
21, 21, 22, 103, 102, 183, 184, 265, 264
22, 22, 23, 104, 103, 184, 185, 266, 265
23, 23, 24, 105, 104, 185, 186, 267, 266
24, 24, 25, 106, 105, 186, 187, 268, 267
25, 25, 26, 107, 106, 187, 188, 269, 268
26, 26, 27, 108, 107, 188, 189, 270, 269
27, 27, 28, 109, 108, 189, 190, 271, 270
28, 28, 29, 110, 109, 190, 191, 272, 271
29, 29, 30, 111, 110, 191, 192, 273, 272
30, 30, 31, 112, 111, 192, 193, 274, 273
31, 31, 32, 113, 112, 193, 194, 275, 274
32, 32, 33, 114, 113, 194, 195, 276, 275
33, 33, 34, 115, 114, 195, 196, 277, 276
34, 34, 35, 116, 115, 196, 197, 278, 277
35, 35, 36, 117, 116, 197, 198, 279, 278
36, 36, 37, 118, 117, 198, 199, 280, 279
37, 37, 38, 119, 118, 199, 200, 281, 280
38, 38, 39, 120, 119, 200, 201, 282, 281
39, 39, 40, 121, 120, 201, 202, 283, 282
40, 40, 41, 122, 121, 202, 203, 284, 283
41, 41, 42, 123, 122, 203, 204, 285, 284
42, 42, 43, 124, 123, 204, 205, 286, 285
43, 43, 44, 125, 124, 205, 206, 287, 286
44, 44, 45, 126, 125, 206, 207, 288, 287
45, 45, 46, 127, 126, 207, 208, 289, 288
46, 46, 47, 128, 127, 208, 209, 290, 289
47, 47, 48, 129, 128, 209, 210, 291, 290
48, 48, 49, 130, 129, 210, 211, 292, 291
49, 49, 50, 131, 130, 211, 212, 293, 292
50, 50, 51, 132, 131, 212, 213, 294, 293
51, 51, 52, 133, 132, 213, 214, 295, 294
52, 52, 53, 134, 133, 214, 215, 296, 295
53, 53, 54, 135, 134, 215, 216, 297, 296
54, 54, 55, 136, 135, 216, 217, 298, 297
55, 55, 56, 137, 136, 217, 218, 299, 298
56, 56, 57, 138, 137, 218, 219, 300, 299
57, 57, 58, 139, 138, 219, 220, 301, 300
58, 58, 59, 140, 139, 220, 221, 302, 301
59, 59, 60, 141, 140, 221, 222, 303, 302
60, 60, 61, 142, 141, 222, 223, 304, 303
61, 61, 62, 143, 142, 223, 224, 305, 304
62, 62, 63, 144, 143, 224, 225, 306, 305
63, 63, 64, 145, 144, 225, 226, 307, 306
64, 64, 65, 146, 145, 226, 227, 308, 307
65, 65, 66, 147, 146, 227, 228, 309, 308
66, 66, 67, 148, 147, 228, 229, 310, 309
67, 67, 68, 149, 148, 229, 230, 311, 310
68, 68, 69, 150, 149, 230, 231, 312, 311
69, 69, 70, 151, 150, 231, 232, 313, 312
70, 70, 71, 152, 151, 232, 233, 314, 313
71, 71, 72, 153, 152, 233, 234, 315, 314
72, 72, 73, 154, 153, 234, 235, 316, 315
73, 73, 74, 155, 154, 235, 236, 317, 316
74, 74, 75, 156, 155, 236, 237, 318, 317
75, 75, 76, 157, 156, 237, 238, 319, 318
76, 76, 77, 158, 157, 238, 239, 320, 319
77, 77, 78, 159, 158, 239, 240, 321, 320
78, 78, 79, 160, 159, 240, 241, 322, 321
79, 79, 80, 161, 160, 241, 242, 323, 322
80, 80, 81, 162, 161, 242, 243, 324, 323
81, 163, 164, 245, 244, 325, 326, 407, 406
82, 164, 165, 246, 245, 326, 327, 408, 407
83, 165, 166, 247, 246, 327, 328, 409, 408
84, 166, 167, 248, 247, 328, 329, 410, 409
85, 167, 168, 249, 248, 329, 330, 411, 410
86, 168, 169, 250, 249, 330, 331, 412, 411
87, 169, 170, 251, 250, 331, 332, 413, 412
88, 170, 171, 252, 251, 332, 333, 414, 413
89, 171, 172, 253, 252, 333, 334, 415, 414
90, 172, 173, 254, 253, 334, 335, 416, 415
91, 173, 174, 255, 254, 335, 336, 417, 416
92, 174, 175, 256, 255, 336, 337, 418, 417
93, 175, 176, 257, 256, 337, 338, 419, 418
94, 176, 177, 258, 257, 338, 339, 420, 419
95, 177, 178, 259, 258, 339, 340, 421, 420
96, 178, 179, 260, 259, 340, 341, 422, 421
97, 179, 180, 261, 260, 341, 342, 423, 422
98, 180, 181, 262, 261, 342, 343, 424, 423
99, 181, 182, 263, 262, 343, 344, 425, 424
100, 182, 183, 264, 263, 344, 345, 426, 425
101, 183, 184, 265, 264, 345, 346, 427, 426
102, 184, 185, 266, 265, 346, 347, 428, 427
103, 185, 186, 267, 266, 347, 348, 429, 428
104, 186, 187, 268, 267, 348, 349, 430, 429
105, 187, 188, 269, 268, 349, 350, 431, 430
106, 188, 189, 270, 269, 350, 351, 432, 431
107, 189, 190, 271, 270, 351, 352, 433, 432
108, 190, 191, 272, 271, 352, 353, 434, 433
109, 191, 192, 273, 272, 353, 354, 435, 434
110, 192, 193, 274, 273, 354, 355, 436, 435
111, 193, 194, 275, 274, 355, 356, 437, 436
112, 194, 195, 276, 275, 356, 357, 438, 437
113, 195, 196, 277, 276, 357, 358, 439, 438
114, 196, 197, 278, 277, 358, 359, 440, 439
115, 197, 198, 279, 278, 359, 360, 441, 440
116, 198, 199, 280, 279, 360, 361, 442, 441
117, 199, 200, 281, 280, 361, 362, 443, 442
118, 200, 201, 282, 281, 362, 363, 444, 443
119, 201, 202, 283, 282, 363, 364, 445, 444
120, 202, 203, 284, 283, 364, 365, 446, 445
121, 203, 204, 285, 284, 365, 366, 447, 446
122, 204, 205, 286, 285, 366, 367, 448, 447
123, 205, 206, 287, 286, 367, 368, 449, 448
124, 206, 207, 288, 287, 368, 369, 450, 449
125, 207, 208, 289, 288, 369, 370, 451, 450
126, 208, 209, 290, 289, 370, 371, 452, 451
127, 209, 210, 291, 290, 371, 372, 453, 452
128, 210, 211, 292, 291, 372, 373, 454, 453
129, 211, 212, 293, 292, 373, 374, 455, 454
130, 212, 213, 294, 293, 374, 375, 456, 455
131, 213, 214, 295, 294, 375, 376, 457, 456
132, 214, 215, 296, 295, 376, 377, 458, 457
133, 215, 216, 297, 296, 377, 378, 459, 458
134, 216, 217, 298, 297, 378, 379, 460, 459
135, 217, 218, 299, 298, 379, 380, 461, 460
136, 218, 219, 300, 299, 380, 381, 462, 461
137, 219, 220, 301, 300, 381, 382, 463, 462
138, 220, 221, 302, 301, 382, 383, 464, 463
139, 221, 222, 303, 302, 383, 384, 465, 464
140, 222, 223, 304, 303, 384, 385, 466, 465
141, 223, 224, 305, 304, 385, 386, 467, 466
142, 224, 225, 306, 305, 386, 387, 468, 467
143, 225, 226, 307, 306, 387, 388, 469, 468
144, 226, 227, 308, 307, 388, 389, 470, 469
145, 227, 228, 309, 308, 389, 390, 471, 470
146, 228, 229, 310, 309, 390, 391, 472, 471
147, 229, 230, 311, 310, 391, 392, 473, 472
148, 230, 231, 312, 311, 392, 393, 474, 473
149, 231, 232, 313, 312, 393, 394, 475, 474
150, 232, 233, 314, 313, 394, 395, 476, 475
151, 233, 234, 315, 314, 395, 396, 477, 476
152, 234, 235, 316, 315, 396, 397, 478, 477
153, 235, 236, 317, 316, 397, 398, 479, 478
154, 236, 237, 318, 317, 398, 399, 480, 479
155, 237, 238, 319, 318, 399, 400, 481, 480
156, 238, 239, 320, 319, 400, 401, 482, 481
157, 239, 240, 321, 320, 401, 402, 483, 482
158, 240, 241, 322, 321, 402, 403, 484, 483
159, 241, 242, 323, 322, 403, 404, 485, 484
160, 242, 243, 324, 323, 404, 405, 486, 485
161, 325, 326, 407, 406, 487, 488, 569, 568
162, 326, 327, 408, 407, 488, 489, 570, 569
163, 327, 328, 409, 408, 489, 490, 571, 570
164, 328, 329, 410, 409, 490, 491, 572, 571
165, 329, 330, 411, 410, 491, 492, 573, 572
166, 330, 331, 412, 411, 492, 493, 574, 573
167, 331, 332, 413, 412, 493, 494, 575, 574
168, 332, 333, 414, 413, 494, 495, 576, 575
169, 333, 334, 415, 414, 495, 496, 577, 576
170, 334, 335, 416, 415, 496, 497, 578, 577
171, 335, 336, 417, 416, 497, 498, 579, 578
172, 336, 337, 418, 417, 498, 499, 580, 579
173, 337, 338, 419, 418, 499, 500, 581, 580
174, 338, 339, 420, 419, 500, 501, 582, 581
175, 339, 340, 421, 420, 501, 502, 583, 582
176, 340, 341, 422, 421, 502, 503, 584, 583
177, 341, 342, 423, 422, 503, 504, 585, 584
178, 342, 343, 424, 423, 504, 505, 586, 585
179, 343, 344, 425, 424, 505, 506, 587, 586
180, 344, 345, 426, 425, 506, 507, 588, 587
181, 345, 346, 427, 426, 507, 508, 589, 588
182, 346, 347, 428, 427, 508, 509, 590, 589
183, 347, 348, 429, 428, 509, 510, 591, 590
184, 348, 349, 430, 429, 510, 511, 592, 591
185, 349, 350, 431, 430, 511, 512, 593, 592
186, 350, 351, 432, 431, 512, 513, 594, 593
187, 351, 352, 433, 432, 513, 514, 595, 594
188, 352, 353, 434, 433, 514, 515, 596, 595
189, 353, 354, 435, 434, 515, 516, 597, 596
190, 354, 355, 436, 435, 516, 517, 598, 597
191, 355, 356, 437, 436, 517, 518, 599, 598
192, 356, 357, 438, 437, 518, 519, 600, 599
193, 357, 358, 439, 438, 519, 520, 601, 600
194, 358, 359, 440, 439, 520, 521, 602, 601
195, 359, 360, 441, 440, 521, 522, 603, 602
196, 360, 361, 442, 441, 522, 523, 604, 603
197, 361, 362, 443, 442, 523, 524, 605, 604
198, 362, 363, 444, 443, 524, 525, 606, 605
199, 363, 364, 445, 444, 525, 526, 607, 606
200, 364, 365, 446, 445, 526, 527, 608, 607
201, 365, 366, 447, 446, 527, 528, 609, 608
202, 366, 367, 448, 447, 528, 529, 610, 609
203, 367, 368, 449, 448, 529, 530, 611, 610
204, 368, 369, 450, 449, 530, 531, 612, 611
205, 369, 370, 451, 450, 531, 532, 613, 612
206, 370, 371, 452, 451, 532, 533, 614, 613
207, 371, 372, 453, 452, 533, 534, 615, 614
208, 372, 373, 454, 453, 534, 535, 616, 615
209, 373, 374, 455, 454, 535, 536, 617, 616
210, 374, 375, 456, 455, 536, 537, 618, 617
211, 375, 376, 457, 456, 537, 538, 619, 618
212, 376, 377, 458, 457, 538, 539, 620, 619
213, 377, 378, 459, 458, 539, 540, 621, 620
214, 378, 379, 460, 459, 540, 541, 622, 621
215, 379, 380, 461, 460, 541, 542, 623, 622
216, 380, 381, 462, 461, 542, 543, 624, 623
217, 381, 382, 463, 462, 543, 544, 625, 624
218, 382, 383, 464, 463, 544, 545, 626, 625
219, 383, 384, 465, 464, 545, 546, 627, 626
220, 384, 385, 466, 465, 546, 547, 628, 627
221, 385, 386, 467, 466, 547, 548, 629, 628
222, 386, 387, 468, 467, 548, 549, 630, 629
223, 387, 388, 469, 468, 549, 550, 631, 630
224, 388, 389, 470, 469, 550, 551, 632, 631
225, 389, 390, 471, 470, 551, 552, 633, 632
226, 390, 391, 472, 471, 552, 553, 634, 633
227, 391, 392, 473, 472, 553, 554, 635, 634
228, 392, 393, 474, 473, 554, 555, 636, 635
229, 393, 394, 475, 474, 555, 556, 637, 636
230, 394, 395, 476, 475, 556, 557, 638, 637
231, 395, 396, 477, 476, 557, 558, 639, 638
232, 396, 397, 478, 477, 558, 559, 640, 639
233, 397, 398, 479, 478, 559, 560, 641, 640
234, 398, 399, 480, 479, 560, 561, 642, 641
235, 399, 400, 481, 480, 561, 562, 643, 642
236, 400, 401, 482, 481, 562, 563, 644, 643
237, 401, 402, 483, 482, 563, 564, 645, 644
238, 402, 403, 484, 483, 564, 565, 646, 645
239, 403, 404, 485, 484, 565, 566, 647, 646
240, 404, 405, 486, 485, 566, 567, 648, 647
241, 487, 488, 569, 568, 649, 650, 731, 730
242, 488, 489, 570, 569, 650, 651, 732, 731
243, 489, 490, 571, 570, 651, 652, 733, 732
244, 490, 491, 572, 571, 652, 653, 734, 733
245, 491, 492, 573, 572, 653, 654, 735, 734
246, 492, 493, 574, 573, 654, 655, 736, 735
247, 493, 494, 575, 574, 655, 656, 737, 736
248, 494, 495, 576, 575, 656, 657, 738, 737
249, 495, 496, 577, 576, 657, 658, 739, 738
250, 496, 497, 578, 577, 658, 659, 740, 739
251, 497, 498, 579, 578, 659, 660, 741, 740
252, 498, 499, 580, 579, 660, 661, 742, 741
253, 499, 500, 581, 580, 661, 662, 743, 742
254, 500, 501, 582, 581, 662, 663, 744, 743
255, 501, 502, 583, 582, 663, 664, 745, 744
256, 502, 503, 584, 583, 664, 665, 746, 745
257, 503, 504, 585, 584, 665, 666, 747, 746
258, 504, 505, 586, 585, 666, 667, 748, 747
259, 505, 506, 587, 586, 667, 668, 749, 748
260, 506, 507, 588, 587, 668, 669, 750, 749
261, 507, 508, 589, 588, 669, 670, 751, 750
262, 508, 509, 590, 589, 670, 671, 752, 751
263, 509, 510, 591, 590, 671, 672, 753, 752
264, 510, 511, 592, 591, 672, 673, 754, 753
265, 511, 512, 593, 592, 673, 674, 755, 754
266, 512, 513, 594, 593, 674, 675, 756, 755
267, 513, 514, 595, 594, 675, 676, 757, 756
268, 514, 515, 596, 595, 676, 677, 758, 757
269, 515, 516, 597, 596, 677, 678, 759, 758
270, 516, 517, 598, 597, 678, 679, 760, 759
271, 517, 518, 599, 598, 679, 680, 761, 760
272, 518, 519, 600, 599, 680, 681, 762, 761
273, 519, 520, 601, 600, 681, 682, 763, 762
274, 520, 521, 602, 601, 682, 683, 764, 763
275, 521, 522, 603, 602, 683, 684, 765, 764
276, 522, 523, 604, 603, 684, 685, 766, 765
277, 523, 524, 605, 604, 685, 686, 767, 766
278, 524, 525, 606, 605, 686, 687, 768, 767
279, 525, 526, 607, 606, 687, 688, 769, 768
280, 526, 527, 608, 607, 688, 689, 770, 769
281, 527, 528, 609, 608, 689, 690, 771, 770
282, 528, 529, 610, 609, 690, 691, 772, 771
283, 529, 530, 611, 610, 691, 692, 773, 772
284, 530, 531, 612, 611, 692, 693, 774, 773
285, 531, 532, 613, 612, 693, 694, 775, 774
286, 532, 533, 614, 613, 694, 695, 776, 775
287, 533, 534, 615, 614, 695, 696, 777, 776
288, 534, 535, 616, 615, 696, 697, 778, 777
289, 535, 536, 617, 616, 697, 698, 779, 778
290, 536, 537, 618, 617, 698, 699, 780, 779
291, 537, 538, 619, 618, 699, 700, 781, 780
292, 538, 539, 620, 619, 700, 701, 782, 781
293, 539, 540, 621, 620, 701, 702, 783, 782
294, 540, 541, 622, 621, 702, 703, 784, 783
295, 541, 542, 623, 622, 703, 704, 785, 784
296, 542, 543, 624, 623, 704, 705, 786, 785
297, 543, 544, 625, 624, 705, 706, 787, 786
298, 544, 545, 626, 625, 706, 707, 788, 787
299, 545, 546, 627, 626, 707, 708, 789, 788
300, 546, 547, 628, 627, 708, 709, 790, 789
301, 547, 548, 629, 628, 709, 710, 791, 790
302, 548, 549, 630, 629, 710, 711, 792, 791
303, 549, 550, 631, 630, 711, 712, 793, 792
304, 550, 551, 632, 631, 712, 713, 794, 793
305, 551, 552, 633, 632, 713, 714, 795, 794
306, 552, 553, 634, 633, 714, 715, 796, 795
307, 553, 554, 635, 634, 715, 716, 797, 796
308, 554, 555, 636, 635, 716, 717, 798, 797
309, 555, 556, 637, 636, 717, 718, 799, 798
310, 556, 557, 638, 637, 718, 719, 800, 799
311, 557, 558, 639, 638, 719, 720, 801, 800
312, 558, 559, 640, 639, 720, 721, 802, 801
313, 559, 560, 641, 640, 721, 722, 803, 802
314, 560, 561, 642, 641, 722, 723, 804, 803
315, 561, 562, 643, 642, 723, 724, 805, 804
316, 562, 563, 644, 643, 724, 725, 806, 805
317, 563, 564, 645, 644, 725, 726, 807, 806
318, 564, 565, 646, 645, 726, 727, 808, 807
319, 565, 566, 647, 646, 727, 728, 809, 808
320, 566, 567, 648, 647, 728, 729, 810, 809
321, 649, 650, 731, 730, 811, 812, 893, 892
322, 650, 651, 732, 731, 812, 813, 894, 893
323, 651, 652, 733, 732, 813, 814, 895, 894
324, 652, 653, 734, 733, 814, 815, 896, 895
325, 653, 654, 735, 734, 815, 816, 897, 896
326, 654, 655, 736, 735, 816, 817, 898, 897
327, 655, 656, 737, 736, 817, 818, 899, 898
328, 656, 657, 738, 737, 818, 819, 900, 899
329, 657, 658, 739, 738, 819, 820, 901, 900
330, 658, 659, 740, 739, 820, 821, 902, 901
331, 659, 660, 741, 740, 821, 822, 903, 902
332, 660, 661, 742, 741, 822, 823, 904, 903
333, 661, 662, 743, 742, 823, 824, 905, 904
334, 662, 663, 744, 743, 824, 825, 906, 905
335, 663, 664, 745, 744, 825, 826, 907, 906
336, 664, 665, 746, 745, 826, 827, 908, 907
337, 665, 666, 747, 746, 827, 828, 909, 908
338, 666, 667, 748, 747, 828, 829, 910, 909
339, 667, 668, 749, 748, 829, 830, 911, 910
340, 668, 669, 750, 749, 830, 831, 912, 911
341, 669, 670, 751, 750, 831, 832, 913, 912
342, 670, 671, 752, 751, 832, 833, 914, 913
343, 671, 672, 753, 752, 833, 834, 915, 914
344, 672, 673, 754, 753, 834, 835, 916, 915
345, 673, 674, 755, 754, 835, 836, 917, 916
346, 674, 675, 756, 755, 836, 837, 918, 917
347, 675, 676, 757, 756, 837, 838, 919, 918
348, 676, 677, 758, 757, 838, 839, 920, 919
349, 677, 678, 759, 758, 839, 840, 921, 920
350, 678, 679, 760, 759, 840, 841, 922, 921
351, 679, 680, 761, 760, 841, 842, 923, 922
352, 680, 681, 762, 761, 842, 843, 924, 923
353, 681, 682, 763, 762, 843, 844, 925, 924
354, 682, 683, 764, 763, 844, 845, 926, 925
355, 683, 684, 765, 764, 845, 846, 927, 926
356, 684, 685, 766, 765, 846, 847, 928, 927
357, 685, 686, 767, 766, 847, 848, 929, 928
358, 686, 687, 768, 767, 848, 849, 930, 929
359, 687, 688, 769, 768, 849, 850, 931, 930
360, 688, 689, 770, 769, 850, 851, 932, 931
361, 689, 690, 771, 770, 851, 852, 933, 932
362, 690, 691, 772, 771, 852, 853, 934, 933
363, 691, 692, 773, 772, 853, 854, 935, 934
364, 692, 693, 774, 773, 854, 855, 936, 935
365, 693, 694, 775, 774, 855, 856, 937, 936
366, 694, 695, 776, 775, 856, 857, 938, 937
367, 695, 696, 777, 776, 857, 858, 939, 938
368, 696, 697, 778, 777, 858, 859, 940, 939
369, 697, 698, 779, 778, 859, 860, 941, 940
370, 698, 699, 780, 779, 860, 861, 942, 941
371, 699, 700, 781, 780, 861, 862, 943, 942
372, 700, 701, 782, 781, 862, 863, 944, 943
373, 701, 702, 783, 782, 863, 864, 945, 944
374, 702, 703, 784, 783, 864, 865, 946, 945
375, 703, 704, 785, 784, 865, 866, 947, 946
376, 704, 705, 786, 785, 866, 867, 948, 947
377, 705, 706, 787, 786, 867, 868, 949, 948
378, 706, 707, 788, 787, 868, 869, 950, 949
379, 707, 708, 789, 788, 869, 870, 951, 950
380, 708, 709, 790, 789, 870, 871, 952, 951
381, 709, 710, 791, 790, 871, 872, 953, 952
382, 710, 711, 792, 791, 872, 873, 954, 953
383, 711, 712, 793, 792, 873, 874, 955, 954
384, 712, 713, 794, 793, 874, 875, 956, 955
385, 713, 714, 795, 794, 875, 876, 957, 956
386, 714, 715, 796, 795, 876, 877, 958, 957
387, 715, 716, 797, 796, 877, 878, 959, 958
388, 716, 717, 798, 797, 878, 879, 960, 959
389, 717, 718, 799, 798, 879, 880, 961, 960
390, 718, 719, 800, 799, 880, 881, 962, 961
391, 719, 720, 801, 800, 881, 882, 963, 962
392, 720, 721, 802, 801, 882, 883, 964, 963
393, 721, 722, 803, 802, 883, 884, 965, 964
394, 722, 723, 804, 803, 884, 885, 966, 965
395, 723, 724, 805, 804, 885, 886, 967, 966
396, 724, 725, 806, 805, 886, 887, 968, 967
397, 725, 726, 807, 806, 887, 888, 969, 968
398, 726, 727, 808, 807, 888, 889, 970, 969
399, 727, 728, 809, 808, 889, 890, 971, 970
400, 728, 729, 810, 809, 890, 891, 972, 971
401, 811, 812, 893, 892, 973, 974, 1055, 1054
402, 812, 813, 894, 893, 974, 975, 1056, 1055
403, 813, 814, 895, 894, 975, 976, 1057, 1056
404, 814, 815, 896, 895, 976, 977, 1058, 1057
405, 815, 816, 897, 896, 977, 978, 1059, 1058
406, 816, 817, 898, 897, 978, 979, 1060, 1059
407, 817, 818, 899, 898, 979, 980, 1061, 1060
408, 818, 819, 900, 899, 980, 981, 1062, 1061
409, 819, 820, 901, 900, 981, 982, 1063, 1062
410, 820, 821, 902, 901, 982, 983, 1064, 1063
411, 821, 822, 903, 902, 983, 984, 1065, 1064
412, 822, 823, 904, 903, 984, 985, 1066, 1065
413, 823, 824, 905, 904, 985, 986, 1067, 1066
414, 824, 825, 906, 905, 986, 987, 1068, 1067
415, 825, 826, 907, 906, 987, 988, 1069, 1068
416, 826, 827, 908, 907, 988, 989, 1070, 1069
417, 827, 828, 909, 908, 989, 990, 1071, 1070
418, 828, 829, 910, 909, 990, 991, 1072, 1071
419, 829, 830, 911, 910, 991, 992, 1073, 1072
420, 830, 831, 912, 911, 992, 993, 1074, 1073
421, 831, 832, 913, 912, 993, 994, 1075, 1074
422, 832, 833, 914, 913, 994, 995, 1076, 1075
423, 833, 834, 915, 914, 995, 996, 1077, 1076
424, 834, 835, 916, 915, 996, 997, 1078, 1077
425, 835, 836, 917, 916, 997, 998, 1079, 1078
426, 836, 837, 918, 917, 998, 999, 1080, 1079
427, 837, 838, 919, 918, 999, 1000, 1081, 1080
428, 838, 839, 920, 919, 1000, 1001, 1082, 1081
429, 839, 840, 921, 920, 1001, 1002, 1083, 1082
430, 840, 841, 922, 921, 1002, 1003, 1084, 1083
431, 841, 842, 923, 922, 1003, 1004, 1085, 1084
432, 842, 843, 924, 923, 1004, 1005, 1086, 1085
433, 843, 844, 925, 924, 1005, 1006, 1087, 1086
434, 844, 845, 926, 925, 1006, 1007, 1088, 1087
435, 845, 846, 927, 926, 1007, 1008, 1089, 1088
436, 846, 847, 928, 927, 1008, 1009, 1090, 1089
437, 847, 848, 929, 928, 1009, 1010, 1091, 1090
438, 848, 849, 930, 929, 1010, 1011, 1092, 1091
439, 849, 850, 931, 930, 1011, 1012, 1093, 1092
440, 850, 851, 932, 931, 1012, 1013, 1094, 1093
441, 851, 852, 933, 932, 1013, 1014, 1095, 1094
442, 852, 853, 934, 933, 1014, 1015, 1096, 1095
443, 853, 854, 935, 934, 1015, 1016, 1097, 1096
444, 854, 855, 936, 935, 1016, 1017, 1098, 1097
445, 855, 856, 937, 936, 1017, 1018, 1099, 1098
446, 856, 857, 938, 937, 1018, 1019, 1100, 1099
447, 857, 858, 939, 938, 1019, 1020, 1101, 1100
448, 858, 859, 940, 939, 1020, 1021, 1102, 1101
449, 859, 860, 941, 940, 1021, 1022, 1103, 1102
450, 860, 861, 942, 941, 1022, 1023, 1104, 1103
451, 861, 862, 943, 942, 1023, 1024, 1105, 1104
452, 862, 863, 944, 943, 1024, 1025, 1106, 1105
453, 863, 864, 945, 944, 1025, 1026, 1107, 1106
454, 864, 865, 946, 945, 1026, 1027, 1108, 1107
455, 865, 866, 947, 946, 1027, 1028, 1109, 1108
456, 866, 867, 948, 947, 1028, 1029, 1110, 1109
457, 867, 868, 949, 948, 1029, 1030, 1111, 1110
458, 868, 869, 950, 949, 1030, 1031, 1112, 1111
459, 869, 870, 951, 950, 1031, 1032, 1113, 1112
460, 870, 871, 952, 951, 1032, 1033, 1114, 1113
461, 871, 872, 953, 952, 1033, 1034, 1115, 1114
462, 872, 873, 954, 953, 1034, 1035, 1116, 1115
463, 873, 874, 955, 954, 1035, 1036, 1117, 1116
464, 874, 875, 956, 955, 1036, 1037, 1118, 1117
465, 875, 876, 957, 956, 1037, 1038, 1119, 1118
466, 876, 877, 958, 957, 1038, 1039, 1120, 1119
467, 877, 878, 959, 958, 1039, 1040, 1121, 1120
468, 878, 879, 960, 959, 1040, 1041, 1122, 1121
469, 879, 880, 961, 960, 1041, 1042, 1123, 1122
470, 880, 881, 962, 961, 1042, 1043, 1124, 1123
471, 881, 882, 963, 962, 1043, 1044, 1125, 1124
472, 882, 883, 964, 963, 1044, 1045, 1126, 1125
473, 883, 884, 965, 964, 1045, 1046, 1127, 1126
474, 884, 885, 966, 965, 1046, 1047, 1128, 1127
475, 885, 886, 967, 966, 1047, 1048, 1129, 1128
476, 886, 887, 968, 967, 1048, 1049, 1130, 1129
477, 887, 888, 969, 968, 1049, 1050, 1131, 1130
478, 888, 889, 970, 969, 1050, 1051, 1132, 1131
479, 889, 890, 971, 970, 1051, 1052, 1133, 1132
480, 890, 891, 972, 971, 1052, 1053, 1134, 1133
481, 973, 974, 1055, 1054, 1135, 1136, 1217, 1216
482, 974, 975, 1056, 1055, 1136, 1137, 1218, 1217
483, 975, 976, 1057, 1056, 1137, 1138, 1219, 1218
484, 976, 977, 1058, 1057, 1138, 1139, 1220, 1219
485, 977, 978, 1059, 1058, 1139, 1140, 1221, 1220
486, 978, 979, 1060, 1059, 1140, 1141, 1222, 1221
487, 979, 980, 1061, 1060, 1141, 1142, 1223, 1222
488, 980, 981, 1062, 1061, 1142, 1143, 1224, 1223
489, 981, 982, 1063, 1062, 1143, 1144, 1225, 1224
490, 982, 983, 1064, 1063, 1144, 1145, 1226, 1225
491, 983, 984, 1065, 1064, 1145, 1146, 1227, 1226
492, 984, 985, 1066, 1065, 1146, 1147, 1228, 1227
493, 985, 986, 1067, 1066, 1147, 1148, 1229, 1228
494, 986, 987, 1068, 1067, 1148, 1149, 1230, 1229
495, 987, 988, 1069, 1068, 1149, 1150, 1231, 1230
496, 988, 989, 1070, 1069, 1150, 1151, 1232, 1231
497, 989, 990, 1071, 1070, 1151, 1152, 1233, 1232
498, 990, 991, 1072, 1071, 1152, 1153, 1234, 1233
499, 991, 992, 1073, 1072, 1153, 1154, 1235, 1234
500, 992, 993, 1074, 1073, 1154, 1155, 1236, 1235
501, 993, 994, 1075, 1074, 1155, 1156, 1237, 1236
502, 994, 995, 1076, 1075, 1156, 1157, 1238, 1237
503, 995, 996, 1077, 1076, 1157, 1158, 1239, 1238
504, 996, 997, 1078, 1077, 1158, 1159, 1240, 1239
505, 997, 998, 1079, 1078, 1159, 1160, 1241, 1240
506, 998, 999, 1080, 1079, 1160, 1161, 1242, 1241
507, 999, 1000, 1081, 1080, 1161, 1162, 1243, 1242
508, 1000, 1001, 1082, 1081, 1162, 1163, 1244, 1243
509, 1001, 1002, 1083, 1082, 1163, 1164, 1245, 1244
510, 1002, 1003, 1084, 1083, 1164, 1165, 1246, 1245
511, 1003, 1004, 1085, 1084, 1165, 1166, 1247, 1246
512, 1004, 1005, 1086, 1085, 1166, 1167, 1248, 1247
513, 1005, 1006, 1087, 1086, 1167, 1168, 1249, 1248
514, 1006, 1007, 1088, 1087, 1168, 1169, 1250, 1249
515, 1007, 1008, 1089, 1088, 1169, 1170, 1251, 1250
516, 1008, 1009, 1090, 1089, 1170, 1171, 1252, 1251
517, 1009, 1010, 1091, 1090, 1171, 1172, 1253, 1252
518, 1010, 1011, 1092, 1091, 1172, 1173, 1254, 1253
519, 1011, 1012, 1093, 1092, 1173, 1174, 1255, 1254
520, 1012, 1013, 1094, 1093, 1174, 1175, 1256, 1255
521, 1013, 1014, 1095, 1094, 1175, 1176, 1257, 1256
522, 1014, 1015, 1096, 1095, 1176, 1177, 1258, 1257
523, 1015, 1016, 1097, 1096, 1177, 1178, 1259, 1258
524, 1016, 1017, 1098, 1097, 1178, 1179, 1260, 1259
525, 1017, 1018, 1099, 1098, 1179, 1180, 1261, 1260
526, 1018, 1019, 1100, 1099, 1180, 1181, 1262, 1261
527, 1019, 1020, 1101, 1100, 1181, 1182, 1263, 1262
528, 1020, 1021, 1102, 1101, 1182, 1183, 1264, 1263
529, 1021, 1022, 1103, 1102, 1183, 1184, 1265, 1264
530, 1022, 1023, 1104, 1103, 1184, 1185, 1266, 1265
531, 1023, 1024, 1105, 1104, 1185, 1186, 1267, 1266
532, 1024, 1025, 1106, 1105, 1186, 1187, 1268, 1267
533, 1025, 1026, 1107, 1106, 1187, 1188, 1269, 1268
534, 1026, 1027, 1108, 1107, 1188, 1189, 1270, 1269
535, 1027, 1028, 1109, 1108, 1189, 1190, 1271, 1270
536, 1028, 1029, 1110, 1109, 1190, 1191, 1272, 1271
537, 1029, 1030, 1111, 1110, 1191, 1192, 1273, 1272
538, 1030, 1031, 1112, 1111, 1192, 1193, 1274, 1273
539, 1031, 1032, 1113, 1112, 1193, 1194, 1275, 1274
540, 1032, 1033, 1114, 1113, 1194, 1195, 1276, 1275
541, 1033, 1034, 1115, 1114, 1195, 1196, 1277, 1276
542, 1034, 1035, 1116, 1115, 1196, 1197, 1278, 1277
543, 1035, 1036, 1117, 1116, 1197, 1198, 1279, 1278
544, 1036, 1037, 1118, 1117, 1198, 1199, 1280, 1279
545, 1037, 1038, 1119, 1118, 1199, 1200, 1281, 1280
546, 1038, 1039, 1120, 1119, 1200, 1201, 1282, 1281
547, 1039, 1040, 1121, 1120, 1201, 1202, 1283, 1282
548, 1040, 1041, 1122, 1121, 1202, 1203, 1284, 1283
549, 1041, 1042, 1123, 1122, 1203, 1204, 1285, 1284
550, 1042, 1043, 1124, 1123, 1204, 1205, 1286, 1285
551, 1043, 1044, 1125, 1124, 1205, 1206, 1287, 1286
552, 1044, 1045, 1126, 1125, 1206, 1207, 1288, 1287
553, 1045, 1046, 1127, 1126, 1207, 1208, 1289, 1288
554, 1046, 1047, 1128, 1127, 1208, 1209, 1290, 1289
555, 1047, 1048, 1129, 1128, 1209, 1210, 1291, 1290
556, 1048, 1049, 1130, 1129, 1210, 1211, 1292, 1291
557, 1049, 1050, 1131, 1130, 1211, 1212, 1293, 1292
558, 1050, 1051, 1132, 1131, 1212, 1213, 1294, 1293
559, 1051, 1052, 1133, 1132, 1213, 1214, 1295, 1294
560, 1052, 1053, 1134, 1133, 1214, 1215, 1296, 1295
561, 1135, 1136, 1217, 1216, 1297, 1298, 1379, 1378
562, 1136, 1137, 1218, 1217, 1298, 1299, 1380, 1379
563, 1137, 1138, 1219, 1218, 1299, 1300, 1381, 1380
564, 1138, 1139, 1220, 1219, 1300, 1301, 1382, 1381
565, 1139, 1140, 1221, 1220, 1301, 1302, 1383, 1382
566, 1140, 1141, 1222, 1221, 1302, 1303, 1384, 1383
567, 1141, 1142, 1223, 1222, 1303, 1304, 1385, 1384
568, 1142, 1143, 1224, 1223, 1304, 1305, 1386, 1385
569, 1143, 1144, 1225, 1224, 1305, 1306, 1387, 1386
570, 1144, 1145, 1226, 1225, 1306, 1307, 1388, 1387
571, 1145, 1146, 1227, 1226, 1307, 1308, 1389, 1388
572, 1146, 1147, 1228, 1227, 1308, 1309, 1390, 1389
573, 1147, 1148, 1229, 1228, 1309, 1310, 1391, 1390
574, 1148, 1149, 1230, 1229, 1310, 1311, 1392, 1391
575, 1149, 1150, 1231, 1230, 1311, 1312, 1393, 1392
576, 1150, 1151, 1232, 1231, 1312, 1313, 1394, 1393
577, 1151, 1152, 1233, 1232, 1313, 1314, 1395, 1394
578, 1152, 1153, 1234, 1233, 1314, 1315, 1396, 1395
579, 1153, 1154, 1235, 1234, 1315, 1316, 1397, 1396
580, 1154, 1155, 1236, 1235, 1316, 1317, 1398, 1397
581, 1155, 1156, 1237, 1236, 1317, 1318, 1399, 1398
582, 1156, 1157, 1238, 1237, 1318, 1319, 1400, 1399
583, 1157, 1158, 1239, 1238, 1319, 1320, 1401, 1400
584, 1158, 1159, 1240, 1239, 1320, 1321, 1402, 1401
585, 1159, 1160, 1241, 1240, 1321, 1322, 1403, 1402
586, 1160, 1161, 1242, 1241, 1322, 1323, 1404, 1403
587, 1161, 1162, 1243, 1242, 1323, 1324, 1405, 1404
588, 1162, 1163, 1244, 1243, 1324, 1325, 1406, 1405
589, 1163, 1164, 1245, 1244, 1325, 1326, 1407, 1406
590, 1164, 1165, 1246, 1245, 1326, 1327, 1408, 1407
591, 1165, 1166, 1247, 1246, 1327, 1328, 1409, 1408
592, 1166, 1167, 1248, 1247, 1328, 1329, 1410, 1409
593, 1167, 1168, 1249, 1248, 1329, 1330, 1411, 1410
594, 1168, 1169, 1250, 1249, 1330, 1331, 1412, 1411
595, 1169, 1170, 1251, 1250, 1331, 1332, 1413, 1412
596, 1170, 1171, 1252, 1251, 1332, 1333, 1414, 1413
597, 1171, 1172, 1253, 1252, 1333, 1334, 1415, 1414
598, 1172, 1173, 1254, 1253, 1334, 1335, 1416, 1415
599, 1173, 1174, 1255, 1254, 1335, 1336, 1417, 1416
600, 1174, 1175, 1256, 1255, 1336, 1337, 1418, 1417
601, 1175, 1176, 1257, 1256, 1337, 1338, 1419, 1418
602, 1176, 1177, 1258, 1257, 1338, 1339, 1420, 1419
603, 1177, 1178, 1259, 1258, 1339, 1340, 1421, 1420
604, 1178, 1179, 1260, 1259, 1340, 1341, 1422, 1421
605, 1179, 1180, 1261, 1260, 1341, 1342, 1423, 1422
606, 1180, 1181, 1262, 1261, 1342, 1343, 1424, 1423
607, 1181, 1182, 1263, 1262, 1343, 1344, 1425, 1424
608, 1182, 1183, 1264, 1263, 1344, 1345, 1426, 1425
609, 1183, 1184, 1265, 1264, 1345, 1346, 1427, 1426
610, 1184, 1185, 1266, 1265, 1346, 1347, 1428, 1427
611, 1185, 1186, 1267, 1266, 1347, 1348, 1429, 1428
612, 1186, 1187, 1268, 1267, 1348, 1349, 1430, 1429
613, 1187, 1188, 1269, 1268, 1349, 1350, 1431, 1430
614, 1188, 1189, 1270, 1269, 1350, 1351, 1432, 1431
615, 1189, 1190, 1271, 1270, 1351, 1352, 1433, 1432
616, 1190, 1191, 1272, 1271, 1352, 1353, 1434, 1433
617, 1191, 1192, 1273, 1272, 1353, 1354, 1435, 1434
618, 1192, 1193, 1274, 1273, 1354, 1355, 1436, 1435
619, 1193, 1194, 1275, 1274, 1355, 1356, 1437, 1436
620, 1194, 1195, 1276, 1275, 1356, 1357, 1438, 1437
621, 1195, 1196, 1277, 1276, 1357, 1358, 1439, 1438
622, 1196, 1197, 1278, 1277, 1358, 1359, 1440, 1439
623, 1197, 1198, 1279, 1278, 1359, 1360, 1441, 1440
624, 1198, 1199, 1280, 1279, 1360, 1361, 1442, 1441
625, 1199, 1200, 1281, 1280, 1361, 1362, 1443, 1442
626, 1200, 1201, 1282, 1281, 1362, 1363, 1444, 1443
627, 1201, 1202, 1283, 1282, 1363, 1364, 1445, 1444
628, 1202, 1203, 1284, 1283, 1364, 1365, 1446, 1445
629, 1203, 1204, 1285, 1284, 1365, 1366, 1447, 1446
630, 1204, 1205, 1286, 1285, 1366, 1367, 1448, 1447
631, 1205, 1206, 1287, 1286, 1367, 1368, 1449, 1448
632, 1206, 1207, 1288, 1287, 1368, 1369, 1450, 1449
633, 1207, 1208, 1289, 1288, 1369, 1370, 1451, 1450
634, 1208, 1209, 1290, 1289, 1370, 1371, 1452, 1451
635, 1209, 1210, 1291, 1290, 1371, 1372, 1453, 1452
636, 1210, 1211, 1292, 1291, 1372, 1373, 1454, 1453
637, 1211, 1212, 1293, 1292, 1373, 1374, 1455, 1454
638, 1212, 1213, 1294, 1293, 1374, 1375, 1456, 1455
639, 1213, 1214, 1295, 1294, 1375, 1376, 1457, 1456
640, 1214, 1215, 1296, 1295, 1376, 1377, 1458, 1457
*ELEMENT, TYPE=C3D8, ELSET=TOOL
641, 1459, 1460, 1661, 1660, 1861, 1862, 2063, 2062
642, 1460, 1461, 1662, 1661, 1862, 1863, 2064, 2063
643, 1461, 1462, 1663, 1662, 1863, 1864, 2065, 2064
644, 1462, 1463, 1664, 1663, 1864, 1865, 2066, 2065
645, 1463, 1464, 1665, 1664, 1865, 1866, 2067, 2066
646, 1464, 1465, 1666, 1665, 1866, 1867, 2068, 2067
647, 1465, 1466, 1667, 1666, 1867, 1868, 2069, 2068
648, 1466, 1467, 1668, 1667, 1868, 1869, 2070, 2069
649, 1467, 1468, 1669, 1668, 1869, 1870, 2071, 2070
650, 1468, 1469, 1670, 1669, 1870, 1871, 2072, 2071
651, 1469, 1470, 1671, 1670, 1871, 1872, 2073, 2072
652, 1470, 1471, 1672, 1671, 1872, 1873, 2074, 2073
653, 1471, 1472, 1673, 1672, 1873, 1874, 2075, 2074
654, 1472, 1473, 1674, 1673, 1874, 1875, 2076, 2075
655, 1473, 1474, 1675, 1674, 1875, 1876, 2077, 2076
656, 1474, 1475, 1676, 1675, 1876, 1877, 2078, 2077
657, 1475, 1476, 1677, 1676, 1877, 1878, 2079, 2078
658, 1476, 1477, 1678, 1677, 1878, 1879, 2080, 2079
659, 1477, 1478, 1679, 1678, 1879, 1880, 2081, 2080
660, 1478, 1479, 1680, 1679, 1880, 1881, 2082, 2081
661, 1479, 1480, 1681, 1680, 1881, 1882, 2083, 2082
662, 1480, 1481, 1682, 1681, 1882, 1883, 2084, 2083
663, 1481, 1482, 1683, 1682, 1883, 1884, 2085, 2084
664, 1482, 1483, 1684, 1683, 1884, 1885, 2086, 2085
665, 1483, 1484, 1685, 1684, 1885, 1886, 2087, 2086
666, 1484, 1485, 1686, 1685, 1886, 1887, 2088, 2087
667, 1485, 1486, 1687, 1686, 1887, 1888, 2089, 2088
668, 1486, 1487, 1688, 1687, 1888, 1889, 2090, 2089
669, 1487, 1488, 1689, 1688, 1889, 1890, 2091, 2090
670, 1488, 1489, 1690, 1689, 1890, 1891, 2092, 2091
671, 1489, 1490, 1691, 1690, 1891, 1892, 2093, 2092
672, 1490, 1491, 1692, 1691, 1892, 1893, 2094, 2093
673, 1491, 1492, 1693, 1692, 1893, 1894, 2095, 2094
674, 1492, 1493, 1694, 1693, 1894, 1895, 2096, 2095
675, 1493, 1494, 1695, 1694, 1895, 1896, 2097, 2096
676, 1494, 1495, 1696, 1695, 1896, 1897, 2098, 2097
677, 1495, 1496, 1697, 1696, 1897, 1898, 2099, 2098
678, 1496, 1497, 1698, 1697, 1898, 1899, 2100, 2099
679, 1497, 1498, 1699, 1698, 1899, 1900, 2101, 2100
680, 1498, 1499, 1700, 1699, 1900, 1901, 2102, 2101
681, 1499, 1500, 1701, 1700, 1901, 1902, 2103, 2102
682, 1500, 1501, 1702, 1701, 1902, 1903, 2104, 2103
683, 1501, 1502, 1703, 1702, 1903, 1904, 2105, 2104
684, 1502, 1503, 1704, 1703, 1904, 1905, 2106, 2105
685, 1503, 1504, 1705, 1704, 1905, 1906, 2107, 2106
686, 1504, 1505, 1706, 1705, 1906, 1907, 2108, 2107
687, 1505, 1506, 1707, 1706, 1907, 1908, 2109, 2108
688, 1506, 1507, 1708, 1707, 1908, 1909, 2110, 2109
689, 1507, 1508, 1709, 1708, 1909, 1910, 2111, 2110
690, 1508, 1509, 1710, 1709, 1910, 1911, 2112, 2111
691, 1509, 1510, 1711, 1710, 1911, 1912, 2113, 2112
692, 1510, 1511, 1712, 1711, 1912, 1913, 2114, 2113
693, 1511, 1512, 1713, 1712, 1913, 1914, 2115, 2114
694, 1512, 1513, 1714, 1713, 1914, 1915, 2116, 2115
695, 1513, 1514, 1715, 1714, 1915, 1916, 2117, 2116
696, 1514, 1515, 1716, 1715, 1916, 1917, 2118, 2117
697, 1515, 1516, 1717, 1716, 1917, 1918, 2119, 2118
698, 1516, 1517, 1718, 1717, 1918, 1919, 2120, 2119
699, 1517, 1518, 1719, 1718, 1919, 1920, 2121, 2120
700, 1518, 1519, 1720, 1719, 1920, 1921, 2122, 2121
701, 1519, 1520, 1721, 1720, 1921, 1922, 2123, 2122
702, 1520, 1521, 1722, 1721, 1922, 1923, 2124, 2123
703, 1521, 1522, 1723, 1722, 1923, 1924, 2125, 2124
704, 1522, 1523, 1724, 1723, 1924, 1925, 2126, 2125
705, 1523, 1524, 1725, 1724, 1925, 1926, 2127, 2126
706, 1524, 1525, 1726, 1725, 1926, 1927, 2128, 2127
707, 1525, 1526, 1727, 1726, 1927, 1928, 2129, 2128
708, 1526, 1527, 1728, 1727, 1928, 1929, 2130, 2129
709, 1527, 1528, 1729, 1728, 1929, 1930, 2131, 2130
710, 1528, 1529, 1730, 1729, 1930, 1931, 2132, 2131
711, 1529, 1530, 1731, 1730, 1931, 1932, 2133, 2132
712, 1530, 1531, 1732, 1731, 1932, 1933, 2134, 2133
713, 1531, 1532, 1733, 1732, 1933, 1934, 2135, 2134
714, 1532, 1533, 1734, 1733, 1934, 1935, 2136, 2135
715, 1533, 1534, 1735, 1734, 1935, 1936, 2137, 2136
716, 1534, 1535, 1736, 1735, 1936, 1937, 2138, 2137
717, 1535, 1536, 1737, 1736, 1937, 1938, 2139, 2138
718, 1536, 1537, 1738, 1737, 1938, 1939, 2140, 2139
719, 1537, 1538, 1739, 1738, 1939, 1940, 2141, 2140
720, 1538, 1539, 1740, 1739, 1940, 1941, 2142, 2141
721, 1539, 1540, 1741, 1740, 1941, 1942, 2143, 2142
722, 1540, 1541, 1742, 1741, 1942, 1943, 2144, 2143
723, 1541, 1542, 1743, 1742, 1943, 1944, 2145, 2144
724, 1542, 1543, 1744, 1743, 1944, 1945, 2146, 2145
725, 1543, 1544, 1745, 1744, 1945, 1946, 2147, 2146
726, 1544, 1545, 1746, 1745, 1946, 1947, 2148, 2147
727, 1545, 1546, 1747, 1746, 1947, 1948, 2149, 2148
728, 1546, 1547, 1748, 1747, 1948, 1949, 2150, 2149
729, 1547, 1548, 1749, 1748, 1949, 1950, 2151, 2150
730, 1548, 1549, 1750, 1749, 1950, 1951, 2152, 2151
731, 1549, 1550, 1751, 1750, 1951, 1952, 2153, 2152
732, 1550, 1551, 1752, 1751, 1952, 1953, 2154, 2153
733, 1551, 1552, 1753, 1752, 1953, 1954, 2155, 2154
734, 1552, 1553, 1754, 1753, 1954, 1955, 2156, 2155
735, 1553, 1554, 1755, 1754, 1955, 1956, 2157, 2156
736, 1554, 1555, 1756, 1755, 1956, 1957, 2158, 2157
737, 1555, 1556, 1757, 1756, 1957, 1958, 2159, 2158
738, 1556, 1557, 1758, 1757, 1958, 1959, 2160, 2159
739, 1557, 1558, 1759, 1758, 1959, 1960, 2161, 2160
740, 1558, 1559, 1760, 1759, 1960, 1961, 2162, 2161
741, 1559, 1560, 1761, 1760, 1961, 1962, 2163, 2162
742, 1560, 1561, 1762, 1761, 1962, 1963, 2164, 2163
743, 1561, 1562, 1763, 1762, 1963, 1964, 2165, 2164
744, 1562, 1563, 1764, 1763, 1964, 1965, 2166, 2165
745, 1563, 1564, 1765, 1764, 1965, 1966, 2167, 2166
746, 1564, 1565, 1766, 1765, 1966, 1967, 2168, 2167
747, 1565, 1566, 1767, 1766, 1967, 1968, 2169, 2168
748, 1566, 1567, 1768, 1767, 1968, 1969, 2170, 2169
749, 1567, 1568, 1769, 1768, 1969, 1970, 2171, 2170
750, 1568, 1569, 1770, 1769, 1970, 1971, 2172, 2171
751, 1569, 1570, 1771, 1770, 1971, 1972, 2173, 2172
752, 1570, 1571, 1772, 1771, 1972, 1973, 2174, 2173
753, 1571, 1572, 1773, 1772, 1973, 1974, 2175, 2174
754, 1572, 1573, 1774, 1773, 1974, 1975, 2176, 2175
755, 1573, 1574, 1775, 1774, 1975, 1976, 2177, 2176
756, 1574, 1575, 1776, 1775, 1976, 1977, 2178, 2177
757, 1575, 1576, 1777, 1776, 1977, 1978, 2179, 2178
758, 1576, 1577, 1778, 1777, 1978, 1979, 2180, 2179
759, 1577, 1578, 1779, 1778, 1979, 1980, 2181, 2180
760, 1578, 1579, 1780, 1779, 1980, 1981, 2182, 2181
761, 1579, 1580, 1781, 1780, 1981, 1982, 2183, 2182
762, 1580, 1581, 1782, 1781, 1982, 1983, 2184, 2183
763, 1581, 1582, 1783, 1782, 1983, 1984, 2185, 2184
764, 1582, 1583, 1784, 1783, 1984, 1985, 2186, 2185
765, 1583, 1584, 1785, 1784, 1985, 1986, 2187, 2186
766, 1584, 1585, 1786, 1785, 1986, 1987, 2188, 2187
767, 1585, 1586, 1787, 1786, 1987, 1988, 2189, 2188
768, 1586, 1587, 1788, 1787, 1988, 1989, 2190, 2189
769, 1587, 1588, 1789, 1788, 1989, 1990, 2191, 2190
770, 1588, 1589, 1790, 1789, 1990, 1991, 2192, 2191
771, 1589, 1590, 1791, 1790, 1991, 1992, 2193, 2192
772, 1590, 1591, 1792, 1791, 1992, 1993, 2194, 2193
773, 1591, 1592, 1793, 1792, 1993, 1994, 2195, 2194
774, 1592, 1593, 1794, 1793, 1994, 1995, 2196, 2195
775, 1593, 1594, 1795, 1794, 1995, 1996, 2197, 2196
776, 1594, 1595, 1796, 1795, 1996, 1997, 2198, 2197
777, 1595, 1596, 1797, 1796, 1997, 1998, 2199, 2198
778, 1596, 1597, 1798, 1797, 1998, 1999, 2200, 2199
779, 1597, 1598, 1799, 1798, 1999, 2000, 2201, 2200
780, 1598, 1599, 1800, 1799, 2000, 2001, 2202, 2201
781, 1599, 1600, 1801, 1800, 2001, 2002, 2203, 2202
782, 1600, 1601, 1802, 1801, 2002, 2003, 2204, 2203
783, 1601, 1602, 1803, 1802, 2003, 2004, 2205, 2204
784, 1602, 1603, 1804, 1803, 2004, 2005, 2206, 2205
785, 1603, 1604, 1805, 1804, 2005, 2006, 2207, 2206
786, 1604, 1605, 1806, 1805, 2006, 2007, 2208, 2207
787, 1605, 1606, 1807, 1806, 2007, 2008, 2209, 2208
788, 1606, 1607, 1808, 1807, 2008, 2009, 2210, 2209
789, 1607, 1608, 1809, 1808, 2009, 2010, 2211, 2210
790, 1608, 1609, 1810, 1809, 2010, 2011, 2212, 2211
791, 1609, 1610, 1811, 1810, 2011, 2012, 2213, 2212
792, 1610, 1611, 1812, 1811, 2012, 2013, 2214, 2213
793, 1611, 1612, 1813, 1812, 2013, 2014, 2215, 2214
794, 1612, 1613, 1814, 1813, 2014, 2015, 2216, 2215
795, 1613, 1614, 1815, 1814, 2015, 2016, 2217, 2216
796, 1614, 1615, 1816, 1815, 2016, 2017, 2218, 2217
797, 1615, 1616, 1817, 1816, 2017, 2018, 2219, 2218
798, 1616, 1617, 1818, 1817, 2018, 2019, 2220, 2219
799, 1617, 1618, 1819, 1818, 2019, 2020, 2221, 2220
800, 1618, 1619, 1820, 1819, 2020, 2021, 2222, 2221
801, 1619, 1620, 1821, 1820, 2021, 2022, 2223, 2222
802, 1620, 1621, 1822, 1821, 2022, 2023, 2224, 2223
803, 1621, 1622, 1823, 1822, 2023, 2024, 2225, 2224
804, 1622, 1623, 1824, 1823, 2024, 2025, 2226, 2225
805, 1623, 1624, 1825, 1824, 2025, 2026, 2227, 2226
806, 1624, 1625, 1826, 1825, 2026, 2027, 2228, 2227
807, 1625, 1626, 1827, 1826, 2027, 2028, 2229, 2228
808, 1626, 1627, 1828, 1827, 2028, 2029, 2230, 2229
809, 1627, 1628, 1829, 1828, 2029, 2030, 2231, 2230
810, 1628, 1629, 1830, 1829, 2030, 2031, 2232, 2231
811, 1629, 1630, 1831, 1830, 2031, 2032, 2233, 2232
812, 1630, 1631, 1832, 1831, 2032, 2033, 2234, 2233
813, 1631, 1632, 1833, 1832, 2033, 2034, 2235, 2234
814, 1632, 1633, 1834, 1833, 2034, 2035, 2236, 2235
815, 1633, 1634, 1835, 1834, 2035, 2036, 2237, 2236
816, 1634, 1635, 1836, 1835, 2036, 2037, 2238, 2237
817, 1635, 1636, 1837, 1836, 2037, 2038, 2239, 2238
818, 1636, 1637, 1838, 1837, 2038, 2039, 2240, 2239
819, 1637, 1638, 1839, 1838, 2039, 2040, 2241, 2240
820, 1638, 1639, 1840, 1839, 2040, 2041, 2242, 2241
821, 1639, 1640, 1841, 1840, 2041, 2042, 2243, 2242
822, 1640, 1641, 1842, 1841, 2042, 2043, 2244, 2243
823, 1641, 1642, 1843, 1842, 2043, 2044, 2245, 2244
824, 1642, 1643, 1844, 1843, 2044, 2045, 2246, 2245
825, 1643, 1644, 1845, 1844, 2045, 2046, 2247, 2246
826, 1644, 1645, 1846, 1845, 2046, 2047, 2248, 2247
827, 1645, 1646, 1847, 1846, 2047, 2048, 2249, 2248
828, 1646, 1647, 1848, 1847, 2048, 2049, 2250, 2249
829, 1647, 1648, 1849, 1848, 2049, 2050, 2251, 2250
830, 1648, 1649, 1850, 1849, 2050, 2051, 2252, 2251
831, 1649, 1650, 1851, 1850, 2051, 2052, 2253, 2252
832, 1650, 1651, 1852, 1851, 2052, 2053, 2254, 2253
833, 1651, 1652, 1853, 1852, 2053, 2054, 2255, 2254
834, 1652, 1653, 1854, 1853, 2054, 2055, 2256, 2255
835, 1653, 1654, 1855, 1854, 2055, 2056, 2257, 2256
836, 1654, 1655, 1856, 1855, 2056, 2057, 2258, 2257
837, 1655, 1656, 1857, 1856, 2057, 2058, 2259, 2258
838, 1656, 1657, 1858, 1857, 2058, 2059, 2260, 2259
839, 1657, 1658, 1859, 1858, 2059, 2060, 2261, 2260
840, 1658, 1659, 1860, 1859, 2060, 2061, 2262, 2261
*NSET, NSET=CLAMP
1, 2, 3, 4, 5, 6, 7, 8, 9, 10, 11, 71
72, 73, 74, 75, 76, 77, 78, 79, 80, 81, 82, 83
84, 85, 86, 87, 88, 89, 90, 91, 92, 152, 153, 154
155, 156, 157, 158, 159, 160, 161, 162, 163, 164, 165, 166
167, 168, 169, 170, 171, 172, 173, 233, 234, 235, 236, 237
238, 239, 240, 241, 242, 243, 244, 245, 246, 247, 248, 249
250, 251, 252, 253, 254, 314, 315, 316, 317, 318, 319, 320
321, 322, 323, 324, 325, 326, 327, 328, 329, 330, 331, 332
333, 334, 335, 395, 396, 397, 398, 399, 400, 401, 402, 403
404, 405, 406, 407, 408, 409, 410, 411, 412, 413, 414, 415
416, 476, 477, 478, 479, 480, 481, 482, 483, 484, 485, 486
487, 488, 489, 490, 491, 492, 493, 494, 495, 496, 497, 557
558, 559, 560, 561, 562, 563, 564, 565, 566, 567, 568, 569
570, 571, 572, 573, 574, 575, 576, 577, 578, 638, 639, 640
641, 642, 643, 644, 645, 646, 647, 648, 649, 650, 651, 652
653, 654, 655, 656, 657, 658, 659, 719, 720, 721, 722, 723
724, 725, 726, 727, 728, 729, 730, 731, 732, 733, 734, 735
736, 737, 738, 739, 740, 800, 801, 802, 803, 804, 805, 806
807, 808, 809, 810, 811, 812, 813, 814, 815, 816, 817, 818
819, 820, 821, 881, 882, 883, 884, 885, 886, 887, 888, 889
890, 891, 892, 893, 894, 895, 896, 897, 898, 899, 900, 901
902, 962, 963, 964, 965, 966, 967, 968, 969, 970, 971, 972
973, 974, 975, 976, 977, 978, 979, 980, 981, 982, 983, 1043
1044, 1045, 1046, 1047, 1048, 1049, 1050, 1051, 1052, 1053, 1054, 1055
1056, 1057, 1058, 1059, 1060, 1061, 1062, 1063, 1064, 1124, 1125, 1126
1127, 1128, 1129, 1130, 1131, 1132, 1133, 1134, 1135, 1136, 1137, 1138
1139, 1140, 1141, 1142, 1143, 1144, 1145, 1205, 1206, 1207, 1208, 1209
1210, 1211, 1212, 1213, 1214, 1215, 1216, 1217, 1218, 1219, 1220, 1221
1222, 1223, 1224, 1225, 1226, 1286, 1287, 1288, 1289, 1290, 1291, 1292
1293, 1294, 1295, 1296, 1297, 1298, 1299, 1300, 1301, 1302, 1303, 1304
1305, 1306, 1307, 1367, 1368, 1369, 1370, 1371, 1372, 1373, 1374, 1375
1376, 1377, 1378, 1379, 1380, 1381, 1382, 1383, 1384, 1385, 1386, 1387
1388, 1448, 1449, 1450, 1451, 1452, 1453, 1454, 1455, 1456, 1457, 1458
*NSET, NSET=SUPA
1301, 1382
*NSET, NSET=SUPB
1373, 1454
*NSET, NSET=NTOP
1297, 1298, 1299, 1300, 1301, 1302, 1303, 1304, 1305, 1306, 1307, 1308
1309, 1310, 1311, 1312, 1313, 1314, 1315, 1316, 1317, 1318, 1319, 1320
1321, 1322, 1323, 1324, 1325, 1326, 1327, 1328, 1329, 1330, 1331, 1332
1333, 1334, 1335, 1336, 1337, 1338, 1339, 1340, 1341, 1342, 1343, 1344
1345, 1346, 1347, 1348, 1349, 1350, 1351, 1352, 1353, 1354, 1355, 1356
1357, 1358, 1359, 1360, 1361, 1362, 1363, 1364, 1365, 1366, 1367, 1368
1369, 1370, 1371, 1372, 1373, 1374, 1375, 1376, 1377, 1378, 1379, 1380
1381, 1382, 1383, 1384, 1385, 1386, 1387, 1388, 1389, 1390, 1391, 1392
1393, 1394, 1395, 1396, 1397, 1398, 1399, 1400, 1401, 1402, 1403, 1404
1405, 1406, 1407, 1408, 1409, 1410, 1411, 1412, 1413, 1414, 1415, 1416
1417, 1418, 1419, 1420, 1421, 1422, 1423, 1424, 1425, 1426, 1427, 1428
1429, 1430, 1431, 1432, 1433, 1434, 1435, 1436, 1437, 1438, 1439, 1440
1441, 1442, 1443, 1444, 1445, 1446, 1447, 1448, 1449, 1450, 1451, 1452
1453, 1454, 1455, 1456, 1457, 1458
*ELSET, ELSET=ETOPL
561, 562, 563, 564, 565, 566, 567, 568, 569, 570, 571, 572
573, 574, 575, 576, 577, 578, 579, 580, 581, 582, 583, 584
585, 586, 587, 588, 589, 590, 591, 592, 593, 594, 595, 596
597, 598, 599, 600, 601, 602, 603, 604, 605, 606, 607, 608
609, 610, 611, 612, 613, 614, 615, 616, 617, 618, 619, 620
621, 622, 623, 624, 625, 626, 627, 628, 629, 630, 631, 632
633, 634, 635, 636, 637, 638, 639, 640
*SURFACE, NAME=SSLAVE, TYPE=ELEMENT
ETOPL, S2
*SURFACE, NAME=SMASTER, TYPE=ELEMENT
641, S1
642, S1
643, S1
644, S1
645, S1
646, S1
647, S1
648, S1
649, S1
650, S1
651, S1
652, S1
653, S1
654, S1
655, S1
656, S1
657, S1
658, S1
659, S1
660, S1
661, S1
662, S1
663, S1
664, S1
665, S1
666, S1
667, S1
668, S1
669, S1
670, S1
671, S1
672, S1
673, S1
674, S1
675, S1
676, S1
677, S1
678, S1
679, S1
680, S1
681, S1
682, S1
683, S1
684, S1
685, S1
686, S1
687, S1
688, S1
689, S1
690, S1
691, S1
692, S1
693, S1
694, S1
695, S1
696, S1
697, S1
698, S1
699, S1
700, S1
701, S1
702, S1
703, S1
704, S1
705, S1
706, S1
707, S1
708, S1
709, S1
710, S1
711, S1
712, S1
713, S1
714, S1
715, S1
716, S1
717, S1
718, S1
719, S1
720, S1
721, S1
722, S1
723, S1
724, S1
725, S1
726, S1
727, S1
728, S1
729, S1
730, S1
731, S1
732, S1
733, S1
734, S1
735, S1
736, S1
737, S1
738, S1
739, S1
740, S1
741, S1
742, S1
743, S1
744, S1
745, S1
746, S1
747, S1
748, S1
749, S1
750, S1
751, S1
752, S1
753, S1
754, S1
755, S1
756, S1
757, S1
758, S1
759, S1
760, S1
761, S1
762, S1
763, S1
764, S1
765, S1
766, S1
767, S1
768, S1
769, S1
770, S1
771, S1
772, S1
773, S1
774, S1
775, S1
776, S1
777, S1
778, S1
779, S1
780, S1
781, S1
782, S1
783, S1
784, S1
785, S1
786, S1
787, S1
788, S1
789, S1
790, S1
791, S1
792, S1
793, S1
794, S1
795, S1
796, S1
797, S1
798, S1
799, S1
800, S1
801, S1
802, S1
803, S1
804, S1
805, S1
806, S1
807, S1
808, S1
809, S1
810, S1
811, S1
812, S1
813, S1
814, S1
815, S1
816, S1
817, S1
818, S1
819, S1
820, S1
821, S1
822, S1
823, S1
824, S1
825, S1
826, S1
827, S1
828, S1
829, S1
830, S1
831, S1
832, S1
833, S1
834, S1
835, S1
836, S1
837, S1
838, S1
839, S1
840, S1
*MATERIAL, NAME=AL
*ELASTIC
70000, 0.33
*PLASTIC
100, 0
102.005739, 0.001
103.986239, 0.002
105.94186, 0.003
107.872956, 0.004
109.779878, 0.005
111.662972, 0.006
113.522577, 0.007
115.359028, 0.008
117.172657, 0.009
118.963788, 0.01
120.732743, 0.011
122.479839, 0.012
124.205387, 0.013
125.909695, 0.014
127.593067, 0.015
129.255801, 0.016
130.898192, 0.017
132.52053, 0.018
134.123101, 0.019
135.706188, 0.02
137.270069, 0.021
138.815018, 0.022
140.341305, 0.023
141.849196, 0.024
143.338954, 0.025
144.810839, 0.026
146.265105, 0.027
147.702003, 0.028
149.121781, 0.029
150.524685, 0.03
151.910955, 0.031
153.280827, 0.032
154.634537, 0.033
155.972315, 0.034
157.294389, 0.035
158.600982, 0.036
159.892316, 0.037
161.168608, 0.038
162.430073, 0.039
163.676923, 0.04
164.909367, 0.041
166.127609, 0.042
167.331854, 0.043
168.5223, 0.044
169.699144, 0.045
170.862581, 0.046
172.012803, 0.047
173.149997, 0.048
174.27435, 0.049
175.386045, 0.05
176.485262, 0.051
177.57218, 0.052
178.646975, 0.053
179.70982, 0.054
180.760884, 0.055
181.800336, 0.056
182.828343, 0.057
183.845067, 0.058
184.850669, 0.059
185.845308, 0.06
186.829141, 0.061
187.802322, 0.062
188.765003, 0.063
189.717334, 0.064
190.659462, 0.065
191.591533, 0.066
192.513692, 0.067
193.426078, 0.068
194.328833, 0.069
195.222092, 0.07
196.105993, 0.071
196.980668, 0.072
197.846249, 0.073
198.702866, 0.074
199.550646, 0.075
200.389717, 0.076
201.220202, 0.077
202.042224, 0.078
202.855904, 0.079
203.661361, 0.08
204.458711, 0.081
205.248072, 0.082
206.029556, 0.083
206.803277, 0.084
207.569345, 0.085
208.32787, 0.086
209.078958, 0.087
209.822717, 0.088
210.559251, 0.089
211.288663, 0.09
212.011054, 0.091
212.726526, 0.092
213.435176, 0.093
214.137102, 0.094
214.8324, 0.095
215.521165, 0.096
216.20349, 0.097
216.879466, 0.098
217.549185, 0.099
218.212736, 0.1
218.870207, 0.101
219.521684, 0.102
220.167254, 0.103
220.807, 0.104
221.441005, 0.105
222.069352, 0.106
222.692122, 0.107
223.309393, 0.108
223.921245, 0.109
224.527755, 0.11
225.128999, 0.111
225.725052, 0.112
226.315989, 0.113
226.901882, 0.114
227.482803, 0.115
228.058823, 0.116
228.630013, 0.117
229.196441, 0.118
229.758176, 0.119
230.315283, 0.12
230.86783, 0.121
231.415882, 0.122
231.959501, 0.123
232.498753, 0.124
233.033699, 0.125
233.5644, 0.126
234.090918, 0.127
234.613311, 0.128
235.13164, 0.129
235.645961, 0.13
236.156332, 0.131
236.66281, 0.132
237.16545, 0.133
237.664306, 0.134
238.159434, 0.135
238.650885, 0.136
239.138713, 0.137
239.622969, 0.138
240.103704, 0.139
240.580969, 0.14
241.054813, 0.141
241.525284, 0.142
241.992432, 0.143
242.456303, 0.144
242.916944, 0.145
243.374402, 0.146
243.828721, 0.147
244.279947, 0.148
244.728123, 0.149
245.173294, 0.15
245.615502, 0.151
246.054789, 0.152
246.491198, 0.153
246.924768, 0.154
247.355542, 0.155
247.783558, 0.156
248.208856, 0.157
248.631475, 0.158
249.051453, 0.159
249.468828, 0.16
249.883636, 0.161
250.295915, 0.162
250.705701, 0.163
251.113029, 0.164
251.517935, 0.165
251.920452, 0.166
252.320616, 0.167
252.718459, 0.168
253.114014, 0.169
253.507316, 0.17
253.898394, 0.171
254.287282, 0.172
254.674011, 0.173
255.058611, 0.174
255.441112, 0.175
255.821546, 0.176
256.19994, 0.177
256.576325, 0.178
256.95073, 0.179
257.323181, 0.18
257.693707, 0.181
258.062337, 0.182
258.429096, 0.183
258.794011, 0.184
259.157109, 0.185
259.518416, 0.186
259.877957, 0.187
260.235758, 0.188
260.591843, 0.189
260.946237, 0.19
261.298963, 0.191
261.650047, 0.192
261.999511, 0.193
262.347378, 0.194
262.693671, 0.195
263.038413, 0.196
263.381625, 0.197
263.72333, 0.198
264.063549, 0.199
264.402304, 0.2
264.739614, 0.201
265.075502, 0.202
265.409986, 0.203
265.743088, 0.204
266.074827, 0.205
266.405222, 0.206
266.734292, 0.207
267.062057, 0.208
267.388535, 0.209
267.713744, 0.21
268.037703, 0.211
268.36043, 0.212
268.681941, 0.213
269.002255, 0.214
269.321388, 0.215
269.639358, 0.216
269.95618, 0.217
270.271872, 0.218
270.586449, 0.219
270.899927, 0.22
271.212323, 0.221
271.523651, 0.222
271.833926, 0.223
272.143164, 0.224
272.45138, 0.225
272.758588, 0.226
273.064803, 0.227
273.370038, 0.228
273.674308, 0.229
273.977626, 0.23
274.280007, 0.231
274.581462, 0.232
274.882007, 0.233
275.181653, 0.234
275.480414, 0.235
275.778301, 0.236
276.075328, 0.237
276.371508, 0.238
276.666851, 0.239
276.961369, 0.24
277.255076, 0.241
277.547982, 0.242
277.840098, 0.243
278.131437, 0.244
278.422008, 0.245
278.711824, 0.246
279.000894, 0.247
279.28923, 0.248
279.576841, 0.249
279.863739, 0.25
280.149933, 0.251
280.435434, 0.252
280.720251, 0.253
281.004395, 0.254
281.287874, 0.255
281.570698, 0.256
281.852877, 0.257
282.13442, 0.258
282.415335, 0.259
282.695633, 0.26
282.975321, 0.261
283.254408, 0.262
283.532904, 0.263
283.810815, 0.264
284.088152, 0.265
284.364921, 0.266
284.641132, 0.267
284.916791, 0.268
285.191907, 0.269
285.466488, 0.27
285.740541, 0.271
286.014074, 0.272
286.287094, 0.273
286.559609, 0.274
286.831626, 0.275
287.103151, 0.276
287.374192, 0.277
287.644756, 0.278
287.91485, 0.279
288.18448, 0.28
288.453653, 0.281
288.722375, 0.282
288.990653, 0.283
289.258493, 0.284
289.525902, 0.285
289.792886, 0.286
290.05945, 0.287
290.325601, 0.288
290.591345, 0.289
290.856687, 0.29
291.121633, 0.291
291.386189, 0.292
291.65036, 0.293
291.914152, 0.294
292.17757, 0.295
292.44062, 0.296
292.703307, 0.297
292.965636, 0.298
293.227612, 0.299
293.48924, 0.3
296.087451, 0.31
298.655918, 0.32
301.198624, 0.33
303.71902, 0.34
306.220093, 0.35
308.70443, 0.36
311.174273, 0.37
313.631564, 0.38
316.077982, 0.39
318.514984, 0.4
320.943831, 0.41
323.365615, 0.42
325.781282, 0.43
328.191651, 0.44
330.597432, 0.45
332.999239, 0.46
335.397604, 0.47
337.792988, 0.48
340.18579, 0.49
342.576356, 0.5
344.964986, 0.51
347.351939, 0.52
349.737439, 0.53
352.121681, 0.54
354.504834, 0.55
356.887043, 0.56
359.268435, 0.57
361.649118, 0.58
364.029189, 0.59
366.408729, 0.6
368.787809, 0.61
371.166491, 0.62
373.544827, 0.63
375.922866, 0.64
378.300645, 0.65
380.6782, 0.66
383.055561, 0.67
385.432754, 0.68
387.809802, 0.69
390.186723, 0.7
392.563536, 0.71
394.940253, 0.72
397.316889, 0.73
399.693454, 0.74
402.069957, 0.75
404.446407, 0.76
406.822811, 0.77
409.199176, 0.78
411.575505, 0.79
413.951805, 0.8
416.328079, 0.81
418.70433, 0.82
421.080562, 0.83
423.456777, 0.84
425.832977, 0.85
428.209165, 0.86
430.585342, 0.87
432.961509, 0.88
435.337668, 0.89
437.71382, 0.9
440.089966, 0.91
442.466107, 0.92
444.842243, 0.93
447.218375, 0.94
449.594503, 0.95
451.970629, 0.96
454.346751, 0.97
456.722872, 0.98
459.098991, 0.99
461.475108, 1
463.851223, 1.01
466.227337, 1.02
468.603451, 1.03
470.979563, 1.04
473.355674, 1.05
475.731785, 1.06
478.107895, 1.07
480.484004, 1.08
482.860113, 1.09
485.236222, 1.1
487.61233, 1.11
489.988438, 1.12
492.364546, 1.13
494.740654, 1.14
497.116761, 1.15
499.492868, 1.16
501.868975, 1.17
504.245082, 1.18
506.621189, 1.19
508.997295, 1.2
511.373402, 1.21
513.749508, 1.22
516.125615, 1.23
518.501721, 1.24
520.877828, 1.25
523.253934, 1.26
525.63004, 1.27
528.006146, 1.28
530.382253, 1.29
532.758359, 1.3
535.134465, 1.31
537.510571, 1.32
539.886677, 1.33
542.262783, 1.34
544.63889, 1.35
547.014996, 1.36
549.391102, 1.37
551.767208, 1.38
554.143314, 1.39
556.51942, 1.4
558.895526, 1.41
561.271632, 1.42
563.647738, 1.43
566.023844, 1.44
568.399951, 1.45
570.776057, 1.46
573.152163, 1.47
575.528269, 1.48
577.904375, 1.49
580.280481, 1.5
582.656587, 1.51
585.032693, 1.52
587.408799, 1.53
589.784905, 1.54
592.161011, 1.55
594.537117, 1.56
596.913223, 1.57
599.289329, 1.58
601.665435, 1.59
604.041541, 1.6
606.417647, 1.61
608.793754, 1.62
611.16986, 1.63
613.545966, 1.64
615.922072, 1.65
618.298178, 1.66
620.674284, 1.67
623.05039, 1.68
625.426496, 1.69
627.802602, 1.7
630.178708, 1.71
632.554814, 1.72
634.93092, 1.73
637.307026, 1.74
639.683132, 1.75
642.059238, 1.76
644.435344, 1.77
646.81145, 1.78
649.187556, 1.79
651.563662, 1.8
653.939769, 1.81
656.315875, 1.82
658.691981, 1.83
661.068087, 1.84
663.444193, 1.85
665.820299, 1.86
668.196405, 1.87
670.572511, 1.88
672.948617, 1.89
675.324723, 1.9
677.700829, 1.91
680.076935, 1.92
682.453041, 1.93
684.829147, 1.94
687.205253, 1.95
689.581359, 1.96
691.957465, 1.97
694.333571, 1.98
696.709677, 1.99
699.085784, 2
701.46189, 2.01
703.837996, 2.02
706.214102, 2.03
708.590208, 2.04
710.966314, 2.05
713.34242, 2.06
715.718526, 2.07
718.094632, 2.08
720.470738, 2.09
722.846844, 2.1
725.22295, 2.11
727.599056, 2.12
729.975162, 2.13
732.351268, 2.14
734.727374, 2.15
737.10348, 2.16
739.479586, 2.17
741.855693, 2.18
744.231799, 2.19
746.607905, 2.2
748.984011, 2.21
751.360117, 2.22
753.736223, 2.23
756.112329, 2.24
758.488435, 2.25
760.864541, 2.26
763.240647, 2.27
765.616753, 2.28
767.992859, 2.29
770.368965, 2.3
772.745071, 2.31
775.121177, 2.32
777.497283, 2.33
779.873389, 2.34
782.249495, 2.35
784.625601, 2.36
787.001708, 2.37
789.377814, 2.38
791.75392, 2.39
794.130026, 2.4
796.506132, 2.41
798.882238, 2.42
801.258344, 2.43
803.63445, 2.44
806.010556, 2.45
808.386662, 2.46
810.762768, 2.47
813.138874, 2.48
815.51498, 2.49
817.891086, 2.5
820.267192, 2.51
822.643298, 2.52
825.019404, 2.53
827.39551, 2.54
829.771616, 2.55
832.147723, 2.56
834.523829, 2.57
836.899935, 2.58
839.276041, 2.59
841.652147, 2.6
844.028253, 2.61
846.404359, 2.62
848.780465, 2.63
851.156571, 2.64
853.532677, 2.65
855.908783, 2.66
858.284889, 2.67
860.660995, 2.68
863.037101, 2.69
865.413207, 2.7
867.789313, 2.71
870.165419, 2.72
872.541525, 2.73
874.917631, 2.74
877.293738, 2.75
879.669844, 2.76
882.04595, 2.77
884.422056, 2.78
886.798162, 2.79
889.174268, 2.8
891.550374, 2.81
893.92648, 2.82
896.302586, 2.83
898.678692, 2.84
901.054798, 2.85
903.430904, 2.86
905.80701, 2.87
908.183116, 2.88
910.559222, 2.89
912.935328, 2.9
915.311434, 2.91
917.68754, 2.92
920.063646, 2.93
922.439753, 2.94
924.815859, 2.95
927.191965, 2.96
929.568071, 2.97
931.944177, 2.98
934.320283, 2.99
936.696389, 3

*MATERIAL, NAME=STEEL
*ELASTIC
210000., 0.3
*SOLID SECTION, ELSET=SHEET, MATERIAL=AL
*SOLID SECTION, ELSET=TOOL, MATERIAL=STEEL
*SURFACE INTERACTION, NAME=SI
*SURFACE BEHAVIOR, PRESSURE-OVERCLOSURE=LINEAR
1.4e+06, 0.01
*FRICTION
0.1, 1.4e+06
*CONTACT PAIR, INTERACTION=SI, TYPE=NODE TO SURFACE
SSLAVE, SMASTER
*STEP, NLGEOM, INC=100000
*STATIC
0.025, 1.0, 2.5e-06, 0.025
*BOUNDARY
NSHEET, 2, 2, 0.0
*BOUNDARY
CLAMP, 1, 1, 0.0
CLAMP, 3, 3, 0.0
*BOUNDARY
PUNCH, 1, 1, 0
PUNCH, 2, 2, 0
PUNCH, 3, 3, -4
*NODE PRINT, NSET=PUNCH, TOTALS=ONLY
RF
*NODE PRINT, NSET=NTOP
U
*EL PRINT, ELSET=SHEET
PEEQ
*END STEP
*STEP, NLGEOM, INC=100000
*STATIC
0.05, 1.0, 1e-7, 0.05
*MODEL CHANGE, TYPE=CONTACT PAIR, REMOVE
SSLAVE, SMASTER
*BOUNDARY
NSHEET, 2, 2, 0.0
*BOUNDARY
CLAMP, 1, 1, 0.0
CLAMP, 3, 3, 0.0
*BOUNDARY
PUNCH, 1, 1, 0
PUNCH, 2, 2, 0
PUNCH, 3, 3, -4
*NODE PRINT, NSET=PUNCH, TOTALS=ONLY
RF
*NODE PRINT, NSET=NTOP
U
*EL PRINT, ELSET=SHEET
PEEQ
*END STEP
*STEP, NLGEOM, INC=100000
*STATIC
0.05, 1.0, 1e-6, 0.05
*BOUNDARY, OP=NEW
NSHEET, 2, 2, 0.0
PUNCH, 1, 1, 0
PUNCH, 2, 2, 0
PUNCH, 3, 3, -4
SUPA, 1, 1, 0.0
SUPA, 3, 3, 0.0
SUPB, 3, 3, 0.0
*NODE PRINT, NSET=PUNCH, TOTALS=ONLY
RF
*NODE PRINT, NSET=NTOP
U
*EL PRINT, ELSET=SHEET
PEEQ
*END STEP
