*HEADING
strip reference
*NODE, NSET=NSHEET
1, -20, 0, -1
2, -19.5, 0, -1
3, -19.5, 0.5, -1
4, -20, 0.5, -1
5, -20, 0, -0.75
6, -19.5, 0, -0.75
7, -19.5, 0.5, -0.75
8, -20, 0.5, -0.75
9, -19.75, 0, -1
10, -19.5, 0.25, -1
11, -19.75, 0.5, -1
12, -20, 0.25, -1
13, -19.75, 0, -0.75
14, -19.5, 0.25, -0.75
15, -19.75, 0.5, -0.75
16, -20, 0.25, -0.75
17, -20, 0, -0.875
18, -19.5, 0, -0.875
19, -19.5, 0.5, -0.875
20, -20, 0.5, -0.875
21, -19, 0, -1
22, -19, 0.5, -1
23, -19, 0, -0.75
24, -19, 0.5, -0.75
25, -19.25, 0, -1
26, -19, 0.25, -1
27, -19.25, 0.5, -1
28, -19.25, 0, -0.75
29, -19, 0.25, -0.75
30, -19.25, 0.5, -0.75
31, -19, 0, -0.875
32, -19, 0.5, -0.875
33, -18.5, 0, -1
34, -18.5, 0.5, -1
35, -18.5, 0, -0.75
36, -18.5, 0.5, -0.75
37, -18.75, 0, -1
38, -18.5, 0.25, -1
39, -18.75, 0.5, -1
40, -18.75, 0, -0.75
41, -18.5, 0.25, -0.75
42, -18.75, 0.5, -0.75
43, -18.5, 0, -0.875
44, -18.5, 0.5, -0.875
45, -18, 0, -1
46, -18, 0.5, -1
47, -18, 0, -0.75
48, -18, 0.5, -0.75
49, -18.25, 0, -1
50, -18, 0.25, -1
51, -18.25, 0.5, -1
52, -18.25, 0, -0.75
53, -18, 0.25, -0.75
54, -18.25, 0.5, -0.75
55, -18, 0, -0.875
56, -18, 0.5, -0.875
57, -17.5, 0, -1
58, -17.5, 0.5, -1
59, -17.5, 0, -0.75
60, -17.5, 0.5, -0.75
61, -17.75, 0, -1
62, -17.5, 0.25, -1
63, -17.75, 0.5, -1
64, -17.75, 0, -0.75
65, -17.5, 0.25, -0.75
66, -17.75, 0.5, -0.75
67, -17.5, 0, -0.875
68, -17.5, 0.5, -0.875
69, -17, 0, -1
70, -17, 0.5, -1
71, -17, 0, -0.75
72, -17, 0.5, -0.75
73, -17.25, 0, -1
74, -17, 0.25, -1
75, -17.25, 0.5, -1
76, -17.25, 0, -0.75
77, -17, 0.25, -0.75
78, -17.25, 0.5, -0.75
79, -17, 0, -0.875
80, -17, 0.5, -0.875
81, -16.5, 0, -1
82, -16.5, 0.5, -1
83, -16.5, 0, -0.75
84, -16.5, 0.5, -0.75
85, -16.75, 0, -1
86, -16.5, 0.25, -1
87, -16.75, 0.5, -1
88, -16.75, 0, -0.75
89, -16.5, 0.25, -0.75
90, -16.75, 0.5, -0.75
91, -16.5, 0, -0.875
92, -16.5, 0.5, -0.875
93, -16, 0, -1
94, -16, 0.5, -1
95, -16, 0, -0.75
96, -16, 0.5, -0.75
97, -16.25, 0, -1
98, -16, 0.25, -1
99, -16.25, 0.5, -1
100, -16.25, 0, -0.75
101, -16, 0.25, -0.75
102, -16.25, 0.5, -0.75
103, -16, 0, -0.875
104, -16, 0.5, -0.875
105, -15.5, 0, -1
106, -15.5, 0.5, -1
107, -15.5, 0, -0.75
108, -15.5, 0.5, -0.75
109, -15.75, 0, -1
110, -15.5, 0.25, -1
111, -15.75, 0.5, -1
112, -15.75, 0, -0.75
113, -15.5, 0.25, -0.75
114, -15.75, 0.5, -0.75
115, -15.5, 0, -0.875
116, -15.5, 0.5, -0.875
117, -15, 0, -1
118, -15, 0.5, -1
119, -15, 0, -0.75
120, -15, 0.5, -0.75
121, -15.25, 0, -1
122, -15, 0.25, -1
123, -15.25, 0.5, -1
124, -15.25, 0, -0.75
125, -15, 0.25, -0.75
126, -15.25, 0.5, -0.75
127, -15, 0, -0.875
128, -15, 0.5, -0.875
129, -14.5, 0, -1
130, -14.5, 0.5, -1
131, -14.5, 0, -0.75
132, -14.5, 0.5, -0.75
133, -14.75, 0, -1
134, -14.5, 0.25, -1
135, -14.75, 0.5, -1
136, -14.75, 0, -0.75
137, -14.5, 0.25, -0.75
138, -14.75, 0.5, -0.75
139, -14.5, 0, -0.875
140, -14.5, 0.5, -0.875
141, -14, 0, -1
142, -14, 0.5, -1
143, -14, 0, -0.75
144, -14, 0.5, -0.75
145, -14.25, 0, -1
146, -14, 0.25, -1
147, -14.25, 0.5, -1
148, -14.25, 0, -0.75
149, -14, 0.25, -0.75
150, -14.25, 0.5, -0.75
151, -14, 0, -0.875
152, -14, 0.5, -0.875
153, -13.5, 0, -1
154, -13.5, 0.5, -1
155, -13.5, 0, -0.75
156, -13.5, 0.5, -0.75
157, -13.75, 0, -1
158, -13.5, 0.25, -1
159, -13.75, 0.5, -1
160, -13.75, 0, -0.75
161, -13.5, 0.25, -0.75
162, -13.75, 0.5, -0.75
163, -13.5, 0, -0.875
164, -13.5, 0.5, -0.875
165, -13, 0, -1
166, -13, 0.5, -1
167, -13, 0, -0.75
168, -13, 0.5, -0.75
169, -13.25, 0, -1
170, -13, 0.25, -1
171, -13.25, 0.5, -1
172, -13.25, 0, -0.75
173, -13, 0.25, -0.75
174, -13.25, 0.5, -0.75
175, -13, 0, -0.875
176, -13, 0.5, -0.875
177, -12.5, 0, -1
178, -12.5, 0.5, -1
179, -12.5, 0, -0.75
180, -12.5, 0.5, -0.75
181, -12.75, 0, -1
182, -12.5, 0.25, -1
183, -12.75, 0.5, -1
184, -12.75, 0, -0.75
185, -12.5, 0.25, -0.75
186, -12.75, 0.5, -0.75
187, -12.5, 0, -0.875
188, -12.5, 0.5, -0.875
189, -12, 0, -1
190, -12, 0.5, -1
191, -12, 0, -0.75
192, -12, 0.5, -0.75
193, -12.25, 0, -1
194, -12, 0.25, -1
195, -12.25, 0.5, -1
196, -12.25, 0, -0.75
197, -12, 0.25, -0.75
198, -12.25, 0.5, -0.75
199, -12, 0, -0.875
200, -12, 0.5, -0.875
201, -11.5, 0, -1
202, -11.5, 0.5, -1
203, -11.5, 0, -0.75
204, -11.5, 0.5, -0.75
205, -11.75, 0, -1
206, -11.5, 0.25, -1
207, -11.75, 0.5, -1
208, -11.75, 0, -0.75
209, -11.5, 0.25, -0.75
210, -11.75, 0.5, -0.75
211, -11.5, 0, -0.875
212, -11.5, 0.5, -0.875
213, -11, 0, -1
214, -11, 0.5, -1
215, -11, 0, -0.75
216, -11, 0.5, -0.75
217, -11.25, 0, -1
218, -11, 0.25, -1
219, -11.25, 0.5, -1
220, -11.25, 0, -0.75
221, -11, 0.25, -0.75
222, -11.25, 0.5, -0.75
223, -11, 0, -0.875
224, -11, 0.5, -0.875
225, -10.5, 0, -1
226, -10.5, 0.5, -1
227, -10.5, 0, -0.75
228, -10.5, 0.5, -0.75
229, -10.75, 0, -1
230, -10.5, 0.25, -1
231, -10.75, 0.5, -1
232, -10.75, 0, -0.75
233, -10.5, 0.25, -0.75
234, -10.75, 0.5, -0.75
235, -10.5, 0, -0.875
236, -10.5, 0.5, -0.875
237, -10, 0, -1
238, -10, 0.5, -1
239, -10, 0, -0.75
240, -10, 0.5, -0.75
241, -10.25, 0, -1
242, -10, 0.25, -1
243, -10.25, 0.5, -1
244, -10.25, 0, -0.75
245, -10, 0.25, -0.75
246, -10.25, 0.5, -0.75
247, -10, 0, -0.875
248, -10, 0.5, -0.875
249, -9.5, 0, -1
250, -9.5, 0.5, -1
251, -9.5, 0, -0.75
252, -9.5, 0.5, -0.75
253, -9.75, 0, -1
254, -9.5, 0.25, -1
255, -9.75, 0.5, -1
256, -9.75, 0, -0.75
257, -9.5, 0.25, -0.75
258, -9.75, 0.5, -0.75
259, -9.5, 0, -0.875
260, -9.5, 0.5, -0.875
261, -9, 0, -1
262, -9, 0.5, -1
263, -9, 0, -0.75
264, -9, 0.5, -0.75
265, -9.25, 0, -1
266, -9, 0.25, -1
267, -9.25, 0.5, -1
268, -9.25, 0, -0.75
269, -9, 0.25, -0.75
270, -9.25, 0.5, -0.75
271, -9, 0, -0.875
272, -9, 0.5, -0.875
273, -8.5, 0, -1
274, -8.5, 0.5, -1
275, -8.5, 0, -0.75
276, -8.5, 0.5, -0.75
277, -8.75, 0, -1
278, -8.5, 0.25, -1
279, -8.75, 0.5, -1
280, -8.75, 0, -0.75
281, -8.5, 0.25, -0.75
282, -8.75, 0.5, -0.75
283, -8.5, 0, -0.875
284, -8.5, 0.5, -0.875
285, -8, 0, -1
286, -8, 0.5, -1
287, -8, 0, -0.75
288, -8, 0.5, -0.75
289, -8.25, 0, -1
290, -8, 0.25, -1
291, -8.25, 0.5, -1
292, -8.25, 0, -0.75
293, -8, 0.25, -0.75
294, -8.25, 0.5, -0.75
295, -8, 0, -0.875
296, -8, 0.5, -0.875
297, -7.5, 0, -1
298, -7.5, 0.5, -1
299, -7.5, 0, -0.75
300, -7.5, 0.5, -0.75
301, -7.75, 0, -1
302, -7.5, 0.25, -1
303, -7.75, 0.5, -1
304, -7.75, 0, -0.75
305, -7.5, 0.25, -0.75
306, -7.75, 0.5, -0.75
307, -7.5, 0, -0.875
308, -7.5, 0.5, -0.875
309, -7, 0, -1
310, -7, 0.5, -1
311, -7, 0, -0.75
312, -7, 0.5, -0.75
313, -7.25, 0, -1
314, -7, 0.25, -1
315, -7.25, 0.5, -1
316, -7.25, 0, -0.75
317, -7, 0.25, -0.75
318, -7.25, 0.5, -0.75
319, -7, 0, -0.875
320, -7, 0.5, -0.875
321, -6.5, 0, -1
322, -6.5, 0.5, -1
323, -6.5, 0, -0.75
324, -6.5, 0.5, -0.75
325, -6.75, 0, -1
326, -6.5, 0.25, -1
327, -6.75, 0.5, -1
328, -6.75, 0, -0.75
329, -6.5, 0.25, -0.75
330, -6.75, 0.5, -0.75
331, -6.5, 0, -0.875
332, -6.5, 0.5, -0.875
333, -6, 0, -1
334, -6, 0.5, -1
335, -6, 0, -0.75
336, -6, 0.5, -0.75
337, -6.25, 0, -1
338, -6, 0.25, -1
339, -6.25, 0.5, -1
340, -6.25, 0, -0.75
341, -6, 0.25, -0.75
342, -6.25, 0.5, -0.75
343, -6, 0, -0.875
344, -6, 0.5, -0.875
345, -5.5, 0, -1
346, -5.5, 0.5, -1
347, -5.5, 0, -0.75
348, -5.5, 0.5, -0.75
349, -5.75, 0, -1
350, -5.5, 0.25, -1
351, -5.75, 0.5, -1
352, -5.75, 0, -0.75
353, -5.5, 0.25, -0.75
354, -5.75, 0.5, -0.75
355, -5.5, 0, -0.875
356, -5.5, 0.5, -0.875
357, -5, 0, -1
358, -5, 0.5, -1
359, -5, 0, -0.75
360, -5, 0.5, -0.75
361, -5.25, 0, -1
362, -5, 0.25, -1
363, -5.25, 0.5, -1
364, -5.25, 0, -0.75
365, -5, 0.25, -0.75
366, -5.25, 0.5, -0.75
367, -5, 0, -0.875
368, -5, 0.5, -0.875
369, -4.5, 0, -1
370, -4.5, 0.5, -1
371, -4.5, 0, -0.75
372, -4.5, 0.5, -0.75
373, -4.75, 0, -1
374, -4.5, 0.25, -1
375, -4.75, 0.5, -1
376, -4.75, 0, -0.75
377, -4.5, 0.25, -0.75
378, -4.75, 0.5, -0.75
379, -4.5, 0, -0.875
380, -4.5, 0.5, -0.875
381, -4, 0, -1
382, -4, 0.5, -1
383, -4, 0, -0.75
384, -4, 0.5, -0.75
385, -4.25, 0, -1
386, -4, 0.25, -1
387, -4.25, 0.5, -1
388, -4.25, 0, -0.75
389, -4, 0.25, -0.75
390, -4.25, 0.5, -0.75
391, -4, 0, -0.875
392, -4, 0.5, -0.875
393, -3.5, 0, -1
394, -3.5, 0.5, -1
395, -3.5, 0, -0.75
396, -3.5, 0.5, -0.75
397, -3.75, 0, -1
398, -3.5, 0.25, -1
399, -3.75, 0.5, -1
400, -3.75, 0, -0.75
401, -3.5, 0.25, -0.75
402, -3.75, 0.5, -0.75
403, -3.5, 0, -0.875
404, -3.5, 0.5, -0.875
405, -3, 0, -1
406, -3, 0.5, -1
407, -3, 0, -0.75
408, -3, 0.5, -0.75
409, -3.25, 0, -1
410, -3, 0.25, -1
411, -3.25, 0.5, -1
412, -3.25, 0, -0.75
413, -3, 0.25, -0.75
414, -3.25, 0.5, -0.75
415, -3, 0, -0.875
416, -3, 0.5, -0.875
417, -2.5, 0, -1
418, -2.5, 0.5, -1
419, -2.5, 0, -0.75
420, -2.5, 0.5, -0.75
421, -2.75, 0, -1
422, -2.5, 0.25, -1
423, -2.75, 0.5, -1
424, -2.75, 0, -0.75
425, -2.5, 0.25, -0.75
426, -2.75, 0.5, -0.75
427, -2.5, 0, -0.875
428, -2.5, 0.5, -0.875
429, -2, 0, -1
430, -2, 0.5, -1
431, -2, 0, -0.75
432, -2, 0.5, -0.75
433, -2.25, 0, -1
434, -2, 0.25, -1
435, -2.25, 0.5, -1
436, -2.25, 0, -0.75
437, -2, 0.25, -0.75
438, -2.25, 0.5, -0.75
439, -2, 0, -0.875
440, -2, 0.5, -0.875
441, -1.5, 0, -1
442, -1.5, 0.5, -1
443, -1.5, 0, -0.75
444, -1.5, 0.5, -0.75
445, -1.75, 0, -1
446, -1.5, 0.25, -1
447, -1.75, 0.5, -1
448, -1.75, 0, -0.75
449, -1.5, 0.25, -0.75
450, -1.75, 0.5, -0.75
451, -1.5, 0, -0.875
452, -1.5, 0.5, -0.875
453, -1, 0, -1
454, -1, 0.5, -1
455, -1, 0, -0.75
456, -1, 0.5, -0.75
457, -1.25, 0, -1
458, -1, 0.25, -1
459, -1.25, 0.5, -1
460, -1.25, 0, -0.75
461, -1, 0.25, -0.75
462, -1.25, 0.5, -0.75
463, -1, 0, -0.875
464, -1, 0.5, -0.875
465, -0.5, 0, -1
466, -0.5, 0.5, -1
467, -0.5, 0, -0.75
468, -0.5, 0.5, -0.75
469, -0.75, 0, -1
470, -0.5, 0.25, -1
471, -0.75, 0.5, -1
472, -0.75, 0, -0.75
473, -0.5, 0.25, -0.75
474, -0.75, 0.5, -0.75
475, -0.5, 0, -0.875
476, -0.5, 0.5, -0.875
477, 0, 0, -1
478, 0, 0.5, -1
479, 0, 0, -0.75
480, 0, 0.5, -0.75
481, -0.25, 0, -1
482, 0, 0.25, -1
483, -0.25, 0.5, -1
484, -0.25, 0, -0.75
485, 0, 0.25, -0.75
486, -0.25, 0.5, -0.75
487, 0, 0, -0.875
488, 0, 0.5, -0.875
489, 0.5, 0, -1
490, 0.5, 0.5, -1
491, 0.5, 0, -0.75
492, 0.5, 0.5, -0.75
493, 0.25, 0, -1
494, 0.5, 0.25, -1
495, 0.25, 0.5, -1
496, 0.25, 0, -0.75
497, 0.5, 0.25, -0.75
498, 0.25, 0.5, -0.75
499, 0.5, 0, -0.875
500, 0.5, 0.5, -0.875
501, 1, 0, -1
502, 1, 0.5, -1
503, 1, 0, -0.75
504, 1, 0.5, -0.75
505, 0.75, 0, -1
506, 1, 0.25, -1
507, 0.75, 0.5, -1
508, 0.75, 0, -0.75
509, 1, 0.25, -0.75
510, 0.75, 0.5, -0.75
511, 1, 0, -0.875
512, 1, 0.5, -0.875
513, 1.5, 0, -1
514, 1.5, 0.5, -1
515, 1.5, 0, -0.75
516, 1.5, 0.5, -0.75
517, 1.25, 0, -1
518, 1.5, 0.25, -1
519, 1.25, 0.5, -1
520, 1.25, 0, -0.75
521, 1.5, 0.25, -0.75
522, 1.25, 0.5, -0.75
523, 1.5, 0, -0.875
524, 1.5, 0.5, -0.875
525, 2, 0, -1
526, 2, 0.5, -1
527, 2, 0, -0.75
528, 2, 0.5, -0.75
529, 1.75, 0, -1
530, 2, 0.25, -1
531, 1.75, 0.5, -1
532, 1.75, 0, -0.75
533, 2, 0.25, -0.75
534, 1.75, 0.5, -0.75
535, 2, 0, -0.875
536, 2, 0.5, -0.875
537, 2.5, 0, -1
538, 2.5, 0.5, -1
539, 2.5, 0, -0.75
540, 2.5, 0.5, -0.75
541, 2.25, 0, -1
542, 2.5, 0.25, -1
543, 2.25, 0.5, -1
544, 2.25, 0, -0.75
545, 2.5, 0.25, -0.75
546, 2.25, 0.5, -0.75
547, 2.5, 0, -0.875
548, 2.5, 0.5, -0.875
549, 3, 0, -1
550, 3, 0.5, -1
551, 3, 0, -0.75
552, 3, 0.5, -0.75
553, 2.75, 0, -1
554, 3, 0.25, -1
555, 2.75, 0.5, -1
556, 2.75, 0, -0.75
557, 3, 0.25, -0.75
558, 2.75, 0.5, -0.75
559, 3, 0, -0.875
560, 3, 0.5, -0.875
561, 3.5, 0, -1
562, 3.5, 0.5, -1
563, 3.5, 0, -0.75
564, 3.5, 0.5, -0.75
565, 3.25, 0, -1
566, 3.5, 0.25, -1
567, 3.25, 0.5, -1
568, 3.25, 0, -0.75
569, 3.5, 0.25, -0.75
570, 3.25, 0.5, -0.75
571, 3.5, 0, -0.875
572, 3.5, 0.5, -0.875
573, 4, 0, -1
574, 4, 0.5, -1
575, 4, 0, -0.75
576, 4, 0.5, -0.75
577, 3.75, 0, -1
578, 4, 0.25, -1
579, 3.75, 0.5, -1
580, 3.75, 0, -0.75
581, 4, 0.25, -0.75
582, 3.75, 0.5, -0.75
583, 4, 0, -0.875
584, 4, 0.5, -0.875
585, 4.5, 0, -1
586, 4.5, 0.5, -1
587, 4.5, 0, -0.75
588, 4.5, 0.5, -0.75
589, 4.25, 0, -1
590, 4.5, 0.25, -1
591, 4.25, 0.5, -1
592, 4.25, 0, -0.75
593, 4.5, 0.25, -0.75
594, 4.25, 0.5, -0.75
595, 4.5, 0, -0.875
596, 4.5, 0.5, -0.875
597, 5, 0, -1
598, 5, 0.5, -1
599, 5, 0, -0.75
600, 5, 0.5, -0.75
601, 4.75, 0, -1
602, 5, 0.25, -1
603, 4.75, 0.5, -1
604, 4.75, 0, -0.75
605, 5, 0.25, -0.75
606, 4.75, 0.5, -0.75
607, 5, 0, -0.875
608, 5, 0.5, -0.875
609, 5.5, 0, -1
610, 5.5, 0.5, -1
611, 5.5, 0, -0.75
612, 5.5, 0.5, -0.75
613, 5.25, 0, -1
614, 5.5, 0.25, -1
615, 5.25, 0.5, -1
616, 5.25, 0, -0.75
617, 5.5, 0.25, -0.75
618, 5.25, 0.5, -0.75
619, 5.5, 0, -0.875
620, 5.5, 0.5, -0.875
621, 6, 0, -1
622, 6, 0.5, -1
623, 6, 0, -0.75
624, 6, 0.5, -0.75
625, 5.75, 0, -1
626, 6, 0.25, -1
627, 5.75, 0.5, -1
628, 5.75, 0, -0.75
629, 6, 0.25, -0.75
630, 5.75, 0.5, -0.75
631, 6, 0, -0.875
632, 6, 0.5, -0.875
633, 6.5, 0, -1
634, 6.5, 0.5, -1
635, 6.5, 0, -0.75
636, 6.5, 0.5, -0.75
637, 6.25, 0, -1
638, 6.5, 0.25, -1
639, 6.25, 0.5, -1
640, 6.25, 0, -0.75
641, 6.5, 0.25, -0.75
642, 6.25, 0.5, -0.75
643, 6.5, 0, -0.875
644, 6.5, 0.5, -0.875
645, 7, 0, -1
646, 7, 0.5, -1
647, 7, 0, -0.75
648, 7, 0.5, -0.75
649, 6.75, 0, -1
650, 7, 0.25, -1
651, 6.75, 0.5, -1
652, 6.75, 0, -0.75
653, 7, 0.25, -0.75
654, 6.75, 0.5, -0.75
655, 7, 0, -0.875
656, 7, 0.5, -0.875
657, 7.5, 0, -1
658, 7.5, 0.5, -1
659, 7.5, 0, -0.75
660, 7.5, 0.5, -0.75
661, 7.25, 0, -1
662, 7.5, 0.25, -1
663, 7.25, 0.5, -1
664, 7.25, 0, -0.75
665, 7.5, 0.25, -0.75
666, 7.25, 0.5, -0.75
667, 7.5, 0, -0.875
668, 7.5, 0.5, -0.875
669, 8, 0, -1
670, 8, 0.5, -1
671, 8, 0, -0.75
672, 8, 0.5, -0.75
673, 7.75, 0, -1
674, 8, 0.25, -1
675, 7.75, 0.5, -1
676, 7.75, 0, -0.75
677, 8, 0.25, -0.75
678, 7.75, 0.5, -0.75
679, 8, 0, -0.875
680, 8, 0.5, -0.875
681, 8.5, 0, -1
682, 8.5, 0.5, -1
683, 8.5, 0, -0.75
684, 8.5, 0.5, -0.75
685, 8.25, 0, -1
686, 8.5, 0.25, -1
687, 8.25, 0.5, -1
688, 8.25, 0, -0.75
689, 8.5, 0.25, -0.75
690, 8.25, 0.5, -0.75
691, 8.5, 0, -0.875
692, 8.5, 0.5, -0.875
693, 9, 0, -1
694, 9, 0.5, -1
695, 9, 0, -0.75
696, 9, 0.5, -0.75
697, 8.75, 0, -1
698, 9, 0.25, -1
699, 8.75, 0.5, -1
700, 8.75, 0, -0.75
701, 9, 0.25, -0.75
702, 8.75, 0.5, -0.75
703, 9, 0, -0.875
704, 9, 0.5, -0.875
705, 9.5, 0, -1
706, 9.5, 0.5, -1
707, 9.5, 0, -0.75
708, 9.5, 0.5, -0.75
709, 9.25, 0, -1
710, 9.5, 0.25, -1
711, 9.25, 0.5, -1
712, 9.25, 0, -0.75
713, 9.5, 0.25, -0.75
714, 9.25, 0.5, -0.75
715, 9.5, 0, -0.875
716, 9.5, 0.5, -0.875
717, 10, 0, -1
718, 10, 0.5, -1
719, 10, 0, -0.75
720, 10, 0.5, -0.75
721, 9.75, 0, -1
722, 10, 0.25, -1
723, 9.75, 0.5, -1
724, 9.75, 0, -0.75
725, 10, 0.25, -0.75
726, 9.75, 0.5, -0.75
727, 10, 0, -0.875
728, 10, 0.5, -0.875
729, 10.5, 0, -1
730, 10.5, 0.5, -1
731, 10.5, 0, -0.75
732, 10.5, 0.5, -0.75
733, 10.25, 0, -1
734, 10.5, 0.25, -1
735, 10.25, 0.5, -1
736, 10.25, 0, -0.75
737, 10.5, 0.25, -0.75
738, 10.25, 0.5, -0.75
739, 10.5, 0, -0.875
740, 10.5, 0.5, -0.875
741, 11, 0, -1
742, 11, 0.5, -1
743, 11, 0, -0.75
744, 11, 0.5, -0.75
745, 10.75, 0, -1
746, 11, 0.25, -1
747, 10.75, 0.5, -1
748, 10.75, 0, -0.75
749, 11, 0.25, -0.75
750, 10.75, 0.5, -0.75
751, 11, 0, -0.875
752, 11, 0.5, -0.875
753, 11.5, 0, -1
754, 11.5, 0.5, -1
755, 11.5, 0, -0.75
756, 11.5, 0.5, -0.75
757, 11.25, 0, -1
758, 11.5, 0.25, -1
759, 11.25, 0.5, -1
760, 11.25, 0, -0.75
761, 11.5, 0.25, -0.75
762, 11.25, 0.5, -0.75
763, 11.5, 0, -0.875
764, 11.5, 0.5, -0.875
765, 12, 0, -1
766, 12, 0.5, -1
767, 12, 0, -0.75
768, 12, 0.5, -0.75
769, 11.75, 0, -1
770, 12, 0.25, -1
771, 11.75, 0.5, -1
772, 11.75, 0, -0.75
773, 12, 0.25, -0.75
774, 11.75, 0.5, -0.75
775, 12, 0, -0.875
776, 12, 0.5, -0.875
777, 12.5, 0, -1
778, 12.5, 0.5, -1
779, 12.5, 0, -0.75
780, 12.5, 0.5, -0.75
781, 12.25, 0, -1
782, 12.5, 0.25, -1
783, 12.25, 0.5, -1
784, 12.25, 0, -0.75
785, 12.5, 0.25, -0.75
786, 12.25, 0.5, -0.75
787, 12.5, 0, -0.875
788, 12.5, 0.5, -0.875
789, 13, 0, -1
790, 13, 0.5, -1
791, 13, 0, -0.75
792, 13, 0.5, -0.75
793, 12.75, 0, -1
794, 13, 0.25, -1
795, 12.75, 0.5, -1
796, 12.75, 0, -0.75
797, 13, 0.25, -0.75
798, 12.75, 0.5, -0.75
799, 13, 0, -0.875
800, 13, 0.5, -0.875
801, 13.5, 0, -1
802, 13.5, 0.5, -1
803, 13.5, 0, -0.75
804, 13.5, 0.5, -0.75
805, 13.25, 0, -1
806, 13.5, 0.25, -1
807, 13.25, 0.5, -1
808, 13.25, 0, -0.75
809, 13.5, 0.25, -0.75
810, 13.25, 0.5, -0.75
811, 13.5, 0, -0.875
812, 13.5, 0.5, -0.875
813, 14, 0, -1
814, 14, 0.5, -1
815, 14, 0, -0.75
816, 14, 0.5, -0.75
817, 13.75, 0, -1
818, 14, 0.25, -1
819, 13.75, 0.5, -1
820, 13.75, 0, -0.75
821, 14, 0.25, -0.75
822, 13.75, 0.5, -0.75
823, 14, 0, -0.875
824, 14, 0.5, -0.875
825, 14.5, 0, -1
826, 14.5, 0.5, -1
827, 14.5, 0, -0.75
828, 14.5, 0.5, -0.75
829, 14.25, 0, -1
830, 14.5, 0.25, -1
831, 14.25, 0.5, -1
832, 14.25, 0, -0.75
833, 14.5, 0.25, -0.75
834, 14.25, 0.5, -0.75
835, 14.5, 0, -0.875
836, 14.5, 0.5, -0.875
837, 15, 0, -1
838, 15, 0.5, -1
839, 15, 0, -0.75
840, 15, 0.5, -0.75
841, 14.75, 0, -1
842, 15, 0.25, -1
843, 14.75, 0.5, -1
844, 14.75, 0, -0.75
845, 15, 0.25, -0.75
846, 14.75, 0.5, -0.75
847, 15, 0, -0.875
848, 15, 0.5, -0.875
849, 15.5, 0, -1
850, 15.5, 0.5, -1
851, 15.5, 0, -0.75
852, 15.5, 0.5, -0.75
853, 15.25, 0, -1
854, 15.5, 0.25, -1
855, 15.25, 0.5, -1
856, 15.25, 0, -0.75
857, 15.5, 0.25, -0.75
858, 15.25, 0.5, -0.75
859, 15.5, 0, -0.875
860, 15.5, 0.5, -0.875
861, 16, 0, -1
862, 16, 0.5, -1
863, 16, 0, -0.75
864, 16, 0.5, -0.75
865, 15.75, 0, -1
866, 16, 0.25, -1
867, 15.75, 0.5, -1
868, 15.75, 0, -0.75
869, 16, 0.25, -0.75
870, 15.75, 0.5, -0.75
871, 16, 0, -0.875
872, 16, 0.5, -0.875
873, 16.5, 0, -1
874, 16.5, 0.5, -1
875, 16.5, 0, -0.75
876, 16.5, 0.5, -0.75
877, 16.25, 0, -1
878, 16.5, 0.25, -1
879, 16.25, 0.5, -1
880, 16.25, 0, -0.75
881, 16.5, 0.25, -0.75
882, 16.25, 0.5, -0.75
883, 16.5, 0, -0.875
884, 16.5, 0.5, -0.875
885, 17, 0, -1
886, 17, 0.5, -1
887, 17, 0, -0.75
888, 17, 0.5, -0.75
889, 16.75, 0, -1
890, 17, 0.25, -1
891, 16.75, 0.5, -1
892, 16.75, 0, -0.75
893, 17, 0.25, -0.75
894, 16.75, 0.5, -0.75
895, 17, 0, -0.875
896, 17, 0.5, -0.875
897, 17.5, 0, -1
898, 17.5, 0.5, -1
899, 17.5, 0, -0.75
900, 17.5, 0.5, -0.75
901, 17.25, 0, -1
902, 17.5, 0.25, -1
903, 17.25, 0.5, -1
904, 17.25, 0, -0.75
905, 17.5, 0.25, -0.75
906, 17.25, 0.5, -0.75
907, 17.5, 0, -0.875
908, 17.5, 0.5, -0.875
909, 18, 0, -1
910, 18, 0.5, -1
911, 18, 0, -0.75
912, 18, 0.5, -0.75
913, 17.75, 0, -1
914, 18, 0.25, -1
915, 17.75, 0.5, -1
916, 17.75, 0, -0.75
917, 18, 0.25, -0.75
918, 17.75, 0.5, -0.75
919, 18, 0, -0.875
920, 18, 0.5, -0.875
921, 18.5, 0, -1
922, 18.5, 0.5, -1
923, 18.5, 0, -0.75
924, 18.5, 0.5, -0.75
925, 18.25, 0, -1
926, 18.5, 0.25, -1
927, 18.25, 0.5, -1
928, 18.25, 0, -0.75
929, 18.5, 0.25, -0.75
930, 18.25, 0.5, -0.75
931, 18.5, 0, -0.875
932, 18.5, 0.5, -0.875
933, 19, 0, -1
934, 19, 0.5, -1
935, 19, 0, -0.75
936, 19, 0.5, -0.75
937, 18.75, 0, -1
938, 19, 0.25, -1
939, 18.75, 0.5, -1
940, 18.75, 0, -0.75
941, 19, 0.25, -0.75
942, 18.75, 0.5, -0.75
943, 19, 0, -0.875
944, 19, 0.5, -0.875
945, 19.5, 0, -1
946, 19.5, 0.5, -1
947, 19.5, 0, -0.75
948, 19.5, 0.5, -0.75
949, 19.25, 0, -1
950, 19.5, 0.25, -1
951, 19.25, 0.5, -1
952, 19.25, 0, -0.75
953, 19.5, 0.25, -0.75
954, 19.25, 0.5, -0.75
955, 19.5, 0, -0.875
956, 19.5, 0.5, -0.875
957, 20, 0, -1
958, 20, 0.5, -1
959, 20, 0, -0.75
960, 20, 0.5, -0.75
961, 19.75, 0, -1
962, 20, 0.25, -1
963, 19.75, 0.5, -1
964, 19.75, 0, -0.75
965, 20, 0.25, -0.75
966, 19.75, 0.5, -0.75
967, 20, 0, -0.875
968, 20, 0.5, -0.875
969, -20, 0, -0.5
970, -19.5, 0, -0.5
971, -19.5, 0.5, -0.5
972, -20, 0.5, -0.5
973, -19.75, 0, -0.5
974, -19.5, 0.25, -0.5
975, -19.75, 0.5, -0.5
976, -20, 0.25, -0.5
977, -20, 0, -0.625
978, -19.5, 0, -0.625
979, -19.5, 0.5, -0.625
980, -20, 0.5, -0.625
981, -19, 0, -0.5
982, -19, 0.5, -0.5
983, -19.25, 0, -0.5
984, -19, 0.25, -0.5
985, -19.25, 0.5, -0.5
986, -19, 0, -0.625
987, -19, 0.5, -0.625
988, -18.5, 0, -0.5
989, -18.5, 0.5, -0.5
990, -18.75, 0, -0.5
991, -18.5, 0.25, -0.5
992, -18.75, 0.5, -0.5
993, -18.5, 0, -0.625
994, -18.5, 0.5, -0.625
995, -18, 0, -0.5
996, -18, 0.5, -0.5
997, -18.25, 0, -0.5
998, -18, 0.25, -0.5
999, -18.25, 0.5, -0.5
1000, -18, 0, -0.625
1001, -18, 0.5, -0.625
1002, -17.5, 0, -0.5
1003, -17.5, 0.5, -0.5
1004, -17.75, 0, -0.5
1005, -17.5, 0.25, -0.5
1006, -17.75, 0.5, -0.5
1007, -17.5, 0, -0.625
1008, -17.5, 0.5, -0.625
1009, -17, 0, -0.5
1010, -17, 0.5, -0.5
1011, -17.25, 0, -0.5
1012, -17, 0.25, -0.5
1013, -17.25, 0.5, -0.5
1014, -17, 0, -0.625
1015, -17, 0.5, -0.625
1016, -16.5, 0, -0.5
1017, -16.5, 0.5, -0.5
1018, -16.75, 0, -0.5
1019, -16.5, 0.25, -0.5
1020, -16.75, 0.5, -0.5
1021, -16.5, 0, -0.625
1022, -16.5, 0.5, -0.625
1023, -16, 0, -0.5
1024, -16, 0.5, -0.5
1025, -16.25, 0, -0.5
1026, -16, 0.25, -0.5
1027, -16.25, 0.5, -0.5
1028, -16, 0, -0.625
1029, -16, 0.5, -0.625
1030, -15.5, 0, -0.5
1031, -15.5, 0.5, -0.5
1032, -15.75, 0, -0.5
1033, -15.5, 0.25, -0.5
1034, -15.75, 0.5, -0.5
1035, -15.5, 0, -0.625
1036, -15.5, 0.5, -0.625
1037, -15, 0, -0.5
1038, -15, 0.5, -0.5
1039, -15.25, 0, -0.5
1040, -15, 0.25, -0.5
1041, -15.25, 0.5, -0.5
1042, -15, 0, -0.625
1043, -15, 0.5, -0.625
1044, -14.5, 0, -0.5
1045, -14.5, 0.5, -0.5
1046, -14.75, 0, -0.5
1047, -14.5, 0.25, -0.5
1048, -14.75, 0.5, -0.5
1049, -14.5, 0, -0.625
1050, -14.5, 0.5, -0.625
1051, -14, 0, -0.5
1052, -14, 0.5, -0.5
1053, -14.25, 0, -0.5
1054, -14, 0.25, -0.5
1055, -14.25, 0.5, -0.5
1056, -14, 0, -0.625
1057, -14, 0.5, -0.625
1058, -13.5, 0, -0.5
1059, -13.5, 0.5, -0.5
1060, -13.75, 0, -0.5
1061, -13.5, 0.25, -0.5
1062, -13.75, 0.5, -0.5
1063, -13.5, 0, -0.625
1064, -13.5, 0.5, -0.625
1065, -13, 0, -0.5
1066, -13, 0.5, -0.5
1067, -13.25, 0, -0.5
1068, -13, 0.25, -0.5
1069, -13.25, 0.5, -0.5
1070, -13, 0, -0.625
1071, -13, 0.5, -0.625
1072, -12.5, 0, -0.5
1073, -12.5, 0.5, -0.5
1074, -12.75, 0, -0.5
1075, -12.5, 0.25, -0.5
1076, -12.75, 0.5, -0.5
1077, -12.5, 0, -0.625
1078, -12.5, 0.5, -0.625
1079, -12, 0, -0.5
1080, -12, 0.5, -0.5
1081, -12.25, 0, -0.5
1082, -12, 0.25, -0.5
1083, -12.25, 0.5, -0.5
1084, -12, 0, -0.625
1085, -12, 0.5, -0.625
1086, -11.5, 0, -0.5
1087, -11.5, 0.5, -0.5
1088, -11.75, 0, -0.5
1089, -11.5, 0.25, -0.5
1090, -11.75, 0.5, -0.5
1091, -11.5, 0, -0.625
1092, -11.5, 0.5, -0.625
1093, -11, 0, -0.5
1094, -11, 0.5, -0.5
1095, -11.25, 0, -0.5
1096, -11, 0.25, -0.5
1097, -11.25, 0.5, -0.5
1098, -11, 0, -0.625
1099, -11, 0.5, -0.625
1100, -10.5, 0, -0.5
1101, -10.5, 0.5, -0.5
1102, -10.75, 0, -0.5
1103, -10.5, 0.25, -0.5
1104, -10.75, 0.5, -0.5
1105, -10.5, 0, -0.625
1106, -10.5, 0.5, -0.625
1107, -10, 0, -0.5
1108, -10, 0.5, -0.5
1109, -10.25, 0, -0.5
1110, -10, 0.25, -0.5
1111, -10.25, 0.5, -0.5
1112, -10, 0, -0.625
1113, -10, 0.5, -0.625
1114, -9.5, 0, -0.5
1115, -9.5, 0.5, -0.5
1116, -9.75, 0, -0.5
1117, -9.5, 0.25, -0.5
1118, -9.75, 0.5, -0.5
1119, -9.5, 0, -0.625
1120, -9.5, 0.5, -0.625
1121, -9, 0, -0.5
1122, -9, 0.5, -0.5
1123, -9.25, 0, -0.5
1124, -9, 0.25, -0.5
1125, -9.25, 0.5, -0.5
1126, -9, 0, -0.625
1127, -9, 0.5, -0.625
1128, -8.5, 0, -0.5
1129, -8.5, 0.5, -0.5
1130, -8.75, 0, -0.5
1131, -8.5, 0.25, -0.5
1132, -8.75, 0.5, -0.5
1133, -8.5, 0, -0.625
1134, -8.5, 0.5, -0.625
1135, -8, 0, -0.5
1136, -8, 0.5, -0.5
1137, -8.25, 0, -0.5
1138, -8, 0.25, -0.5
1139, -8.25, 0.5, -0.5
1140, -8, 0, -0.625
1141, -8, 0.5, -0.625
1142, -7.5, 0, -0.5
1143, -7.5, 0.5, -0.5
1144, -7.75, 0, -0.5
1145, -7.5, 0.25, -0.5
1146, -7.75, 0.5, -0.5
1147, -7.5, 0, -0.625
1148, -7.5, 0.5, -0.625
1149, -7, 0, -0.5
1150, -7, 0.5, -0.5
1151, -7.25, 0, -0.5
1152, -7, 0.25, -0.5
1153, -7.25, 0.5, -0.5
1154, -7, 0, -0.625
1155, -7, 0.5, -0.625
1156, -6.5, 0, -0.5
1157, -6.5, 0.5, -0.5
1158, -6.75, 0, -0.5
1159, -6.5, 0.25, -0.5
1160, -6.75, 0.5, -0.5
1161, -6.5, 0, -0.625
1162, -6.5, 0.5, -0.625
1163, -6, 0, -0.5
1164, -6, 0.5, -0.5
1165, -6.25, 0, -0.5
1166, -6, 0.25, -0.5
1167, -6.25, 0.5, -0.5
1168, -6, 0, -0.625
1169, -6, 0.5, -0.625
1170, -5.5, 0, -0.5
1171, -5.5, 0.5, -0.5
1172, -5.75, 0, -0.5
1173, -5.5, 0.25, -0.5
1174, -5.75, 0.5, -0.5
1175, -5.5, 0, -0.625
1176, -5.5, 0.5, -0.625
1177, -5, 0, -0.5
1178, -5, 0.5, -0.5
1179, -5.25, 0, -0.5
1180, -5, 0.25, -0.5
1181, -5.25, 0.5, -0.5
1182, -5, 0, -0.625
1183, -5, 0.5, -0.625
1184, -4.5, 0, -0.5
1185, -4.5, 0.5, -0.5
1186, -4.75, 0, -0.5
1187, -4.5, 0.25, -0.5
1188, -4.75, 0.5, -0.5
1189, -4.5, 0, -0.625
1190, -4.5, 0.5, -0.625
1191, -4, 0, -0.5
1192, -4, 0.5, -0.5
1193, -4.25, 0, -0.5
1194, -4, 0.25, -0.5
1195, -4.25, 0.5, -0.5
1196, -4, 0, -0.625
1197, -4, 0.5, -0.625
1198, -3.5, 0, -0.5
1199, -3.5, 0.5, -0.5
1200, -3.75, 0, -0.5
1201, -3.5, 0.25, -0.5
1202, -3.75, 0.5, -0.5
1203, -3.5, 0, -0.625
1204, -3.5, 0.5, -0.625
1205, -3, 0, -0.5
1206, -3, 0.5, -0.5
1207, -3.25, 0, -0.5
1208, -3, 0.25, -0.5
1209, -3.25, 0.5, -0.5
1210, -3, 0, -0.625
1211, -3, 0.5, -0.625
1212, -2.5, 0, -0.5
1213, -2.5, 0.5, -0.5
1214, -2.75, 0, -0.5
1215, -2.5, 0.25, -0.5
1216, -2.75, 0.5, -0.5
1217, -2.5, 0, -0.625
1218, -2.5, 0.5, -0.625
1219, -2, 0, -0.5
1220, -2, 0.5, -0.5
1221, -2.25, 0, -0.5
1222, -2, 0.25, -0.5
1223, -2.25, 0.5, -0.5
1224, -2, 0, -0.625
1225, -2, 0.5, -0.625
1226, -1.5, 0, -0.5
1227, -1.5, 0.5, -0.5
1228, -1.75, 0, -0.5
1229, -1.5, 0.25, -0.5
1230, -1.75, 0.5, -0.5
1231, -1.5, 0, -0.625
1232, -1.5, 0.5, -0.625
1233, -1, 0, -0.5
1234, -1, 0.5, -0.5
1235, -1.25, 0, -0.5
1236, -1, 0.25, -0.5
1237, -1.25, 0.5, -0.5
1238, -1, 0, -0.625
1239, -1, 0.5, -0.625
1240, -0.5, 0, -0.5
1241, -0.5, 0.5, -0.5
1242, -0.75, 0, -0.5
1243, -0.5, 0.25, -0.5
1244, -0.75, 0.5, -0.5
1245, -0.5, 0, -0.625
1246, -0.5, 0.5, -0.625
1247, 0, 0, -0.5
1248, 0, 0.5, -0.5
1249, -0.25, 0, -0.5
1250, 0, 0.25, -0.5
1251, -0.25, 0.5, -0.5
1252, 0, 0, -0.625
1253, 0, 0.5, -0.625
1254, 0.5, 0, -0.5
1255, 0.5, 0.5, -0.5
1256, 0.25, 0, -0.5
1257, 0.5, 0.25, -0.5
1258, 0.25, 0.5, -0.5
1259, 0.5, 0, -0.625
1260, 0.5, 0.5, -0.625
1261, 1, 0, -0.5
1262, 1, 0.5, -0.5
1263, 0.75, 0, -0.5
1264, 1, 0.25, -0.5
1265, 0.75, 0.5, -0.5
1266, 1, 0, -0.625
1267, 1, 0.5, -0.625
1268, 1.5, 0, -0.5
1269, 1.5, 0.5, -0.5
1270, 1.25, 0, -0.5
1271, 1.5, 0.25, -0.5
1272, 1.25, 0.5, -0.5
1273, 1.5, 0, -0.625
1274, 1.5, 0.5, -0.625
1275, 2, 0, -0.5
1276, 2, 0.5, -0.5
1277, 1.75, 0, -0.5
1278, 2, 0.25, -0.5
1279, 1.75, 0.5, -0.5
1280, 2, 0, -0.625
1281, 2, 0.5, -0.625
1282, 2.5, 0, -0.5
1283, 2.5, 0.5, -0.5
1284, 2.25, 0, -0.5
1285, 2.5, 0.25, -0.5
1286, 2.25, 0.5, -0.5
1287, 2.5, 0, -0.625
1288, 2.5, 0.5, -0.625
1289, 3, 0, -0.5
1290, 3, 0.5, -0.5
1291, 2.75, 0, -0.5
1292, 3, 0.25, -0.5
1293, 2.75, 0.5, -0.5
1294, 3, 0, -0.625
1295, 3, 0.5, -0.625
1296, 3.5, 0, -0.5
1297, 3.5, 0.5, -0.5
1298, 3.25, 0, -0.5
1299, 3.5, 0.25, -0.5
1300, 3.25, 0.5, -0.5
1301, 3.5, 0, -0.625
1302, 3.5, 0.5, -0.625
1303, 4, 0, -0.5
1304, 4, 0.5, -0.5
1305, 3.75, 0, -0.5
1306, 4, 0.25, -0.5
1307, 3.75, 0.5, -0.5
1308, 4, 0, -0.625
1309, 4, 0.5, -0.625
1310, 4.5, 0, -0.5
1311, 4.5, 0.5, -0.5
1312, 4.25, 0, -0.5
1313, 4.5, 0.25, -0.5
1314, 4.25, 0.5, -0.5
1315, 4.5, 0, -0.625
1316, 4.5, 0.5, -0.625
1317, 5, 0, -0.5
1318, 5, 0.5, -0.5
1319, 4.75, 0, -0.5
1320, 5, 0.25, -0.5
1321, 4.75, 0.5, -0.5
1322, 5, 0, -0.625
1323, 5, 0.5, -0.625
1324, 5.5, 0, -0.5
1325, 5.5, 0.5, -0.5
1326, 5.25, 0, -0.5
1327, 5.5, 0.25, -0.5
1328, 5.25, 0.5, -0.5
1329, 5.5, 0, -0.625
1330, 5.5, 0.5, -0.625
1331, 6, 0, -0.5
1332, 6, 0.5, -0.5
1333, 5.75, 0, -0.5
1334, 6, 0.25, -0.5
1335, 5.75, 0.5, -0.5
1336, 6, 0, -0.625
1337, 6, 0.5, -0.625
1338, 6.5, 0, -0.5
1339, 6.5, 0.5, -0.5
1340, 6.25, 0, -0.5
1341, 6.5, 0.25, -0.5
1342, 6.25, 0.5, -0.5
1343, 6.5, 0, -0.625
1344, 6.5, 0.5, -0.625
1345, 7, 0, -0.5
1346, 7, 0.5, -0.5
1347, 6.75, 0, -0.5
1348, 7, 0.25, -0.5
1349, 6.75, 0.5, -0.5
1350, 7, 0, -0.625
1351, 7, 0.5, -0.625
1352, 7.5, 0, -0.5
1353, 7.5, 0.5, -0.5
1354, 7.25, 0, -0.5
1355, 7.5, 0.25, -0.5
1356, 7.25, 0.5, -0.5
1357, 7.5, 0, -0.625
1358, 7.5, 0.5, -0.625
1359, 8, 0, -0.5
1360, 8, 0.5, -0.5
1361, 7.75, 0, -0.5
1362, 8, 0.25, -0.5
1363, 7.75, 0.5, -0.5
1364, 8, 0, -0.625
1365, 8, 0.5, -0.625
1366, 8.5, 0, -0.5
1367, 8.5, 0.5, -0.5
1368, 8.25, 0, -0.5
1369, 8.5, 0.25, -0.5
1370, 8.25, 0.5, -0.5
1371, 8.5, 0, -0.625
1372, 8.5, 0.5, -0.625
1373, 9, 0, -0.5
1374, 9, 0.5, -0.5
1375, 8.75, 0, -0.5
1376, 9, 0.25, -0.5
1377, 8.75, 0.5, -0.5
1378, 9, 0, -0.625
1379, 9, 0.5, -0.625
1380, 9.5, 0, -0.5
1381, 9.5, 0.5, -0.5
1382, 9.25, 0, -0.5
1383, 9.5, 0.25, -0.5
1384, 9.25, 0.5, -0.5
1385, 9.5, 0, -0.625
1386, 9.5, 0.5, -0.625
1387, 10, 0, -0.5
1388, 10, 0.5, -0.5
1389, 9.75, 0, -0.5
1390, 10, 0.25, -0.5
1391, 9.75, 0.5, -0.5
1392, 10, 0, -0.625
1393, 10, 0.5, -0.625
1394, 10.5, 0, -0.5
1395, 10.5, 0.5, -0.5
1396, 10.25, 0, -0.5
1397, 10.5, 0.25, -0.5
1398, 10.25, 0.5, -0.5
1399, 10.5, 0, -0.625
1400, 10.5, 0.5, -0.625
1401, 11, 0, -0.5
1402, 11, 0.5, -0.5
1403, 10.75, 0, -0.5
1404, 11, 0.25, -0.5
1405, 10.75, 0.5, -0.5
1406, 11, 0, -0.625
1407, 11, 0.5, -0.625
1408, 11.5, 0, -0.5
1409, 11.5, 0.5, -0.5
1410, 11.25, 0, -0.5
1411, 11.5, 0.25, -0.5
1412, 11.25, 0.5, -0.5
1413, 11.5, 0, -0.625
1414, 11.5, 0.5, -0.625
1415, 12, 0, -0.5
1416, 12, 0.5, -0.5
1417, 11.75, 0, -0.5
1418, 12, 0.25, -0.5
1419, 11.75, 0.5, -0.5
1420, 12, 0, -0.625
1421, 12, 0.5, -0.625
1422, 12.5, 0, -0.5
1423, 12.5, 0.5, -0.5
1424, 12.25, 0, -0.5
1425, 12.5, 0.25, -0.5
1426, 12.25, 0.5, -0.5
1427, 12.5, 0, -0.625
1428, 12.5, 0.5, -0.625
1429, 13, 0, -0.5
1430, 13, 0.5, -0.5
1431, 12.75, 0, -0.5
1432, 13, 0.25, -0.5
1433, 12.75, 0.5, -0.5
1434, 13, 0, -0.625
1435, 13, 0.5, -0.625
1436, 13.5, 0, -0.5
1437, 13.5, 0.5, -0.5
1438, 13.25, 0, -0.5
1439, 13.5, 0.25, -0.5
1440, 13.25, 0.5, -0.5
1441, 13.5, 0, -0.625
1442, 13.5, 0.5, -0.625
1443, 14, 0, -0.5
1444, 14, 0.5, -0.5
1445, 13.75, 0, -0.5
1446, 14, 0.25, -0.5
1447, 13.75, 0.5, -0.5
1448, 14, 0, -0.625
1449, 14, 0.5, -0.625
1450, 14.5, 0, -0.5
1451, 14.5, 0.5, -0.5
1452, 14.25, 0, -0.5
1453, 14.5, 0.25, -0.5
1454, 14.25, 0.5, -0.5
1455, 14.5, 0, -0.625
1456, 14.5, 0.5, -0.625
1457, 15, 0, -0.5
1458, 15, 0.5, -0.5
1459, 14.75, 0, -0.5
1460, 15, 0.25, -0.5
1461, 14.75, 0.5, -0.5
1462, 15, 0, -0.625
1463, 15, 0.5, -0.625
1464, 15.5, 0, -0.5
1465, 15.5, 0.5, -0.5
1466, 15.25, 0, -0.5
1467, 15.5, 0.25, -0.5
1468, 15.25, 0.5, -0.5
1469, 15.5, 0, -0.625
1470, 15.5, 0.5, -0.625
1471, 16, 0, -0.5
1472, 16, 0.5, -0.5
1473, 15.75, 0, -0.5
1474, 16, 0.25, -0.5
1475, 15.75, 0.5, -0.5
1476, 16, 0, -0.625
1477, 16, 0.5, -0.625
1478, 16.5, 0, -0.5
1479, 16.5, 0.5, -0.5
1480, 16.25, 0, -0.5
1481, 16.5, 0.25, -0.5
1482, 16.25, 0.5, -0.5
1483, 16.5, 0, -0.625
1484, 16.5, 0.5, -0.625
1485, 17, 0, -0.5
1486, 17, 0.5, -0.5
1487, 16.75, 0, -0.5
1488, 17, 0.25, -0.5
1489, 16.75, 0.5, -0.5
1490, 17, 0, -0.625
1491, 17, 0.5, -0.625
1492, 17.5, 0, -0.5
1493, 17.5, 0.5, -0.5
1494, 17.25, 0, -0.5
1495, 17.5, 0.25, -0.5
1496, 17.25, 0.5, -0.5
1497, 17.5, 0, -0.625
1498, 17.5, 0.5, -0.625
1499, 18, 0, -0.5
1500, 18, 0.5, -0.5
1501, 17.75, 0, -0.5
1502, 18, 0.25, -0.5
1503, 17.75, 0.5, -0.5
1504, 18, 0, -0.625
1505, 18, 0.5, -0.625
1506, 18.5, 0, -0.5
1507, 18.5, 0.5, -0.5
1508, 18.25, 0, -0.5
1509, 18.5, 0.25, -0.5
1510, 18.25, 0.5, -0.5
1511, 18.5, 0, -0.625
1512, 18.5, 0.5, -0.625
1513, 19, 0, -0.5
1514, 19, 0.5, -0.5
1515, 18.75, 0, -0.5
1516, 19, 0.25, -0.5
1517, 18.75, 0.5, -0.5
1518, 19, 0, -0.625
1519, 19, 0.5, -0.625
1520, 19.5, 0, -0.5
1521, 19.5, 0.5, -0.5
1522, 19.25, 0, -0.5
1523, 19.5, 0.25, -0.5
1524, 19.25, 0.5, -0.5
1525, 19.5, 0, -0.625
1526, 19.5, 0.5, -0.625
1527, 20, 0, -0.5
1528, 20, 0.5, -0.5
1529, 19.75, 0, -0.5
1530, 20, 0.25, -0.5
1531, 19.75, 0.5, -0.5
1532, 20, 0, -0.625
1533, 20, 0.5, -0.625
1534, -20, 0, -0.25
1535, -19.5, 0, -0.25
1536, -19.5, 0.5, -0.25
1537, -20, 0.5, -0.25
1538, -19.75, 0, -0.25
1539, -19.5, 0.25, -0.25
1540, -19.75, 0.5, -0.25
1541, -20, 0.25, -0.25
1542, -20, 0, -0.375
1543, -19.5, 0, -0.375
1544, -19.5, 0.5, -0.375
1545, -20, 0.5, -0.375
1546, -19, 0, -0.25
1547, -19, 0.5, -0.25
1548, -19.25, 0, -0.25
1549, -19, 0.25, -0.25
1550, -19.25, 0.5, -0.25
1551, -19, 0, -0.375
1552, -19, 0.5, -0.375
1553, -18.5, 0, -0.25
1554, -18.5, 0.5, -0.25
1555, -18.75, 0, -0.25
1556, -18.5, 0.25, -0.25
1557, -18.75, 0.5, -0.25
1558, -18.5, 0, -0.375
1559, -18.5, 0.5, -0.375
1560, -18, 0, -0.25
1561, -18, 0.5, -0.25
1562, -18.25, 0, -0.25
1563, -18, 0.25, -0.25
1564, -18.25, 0.5, -0.25
1565, -18, 0, -0.375
1566, -18, 0.5, -0.375
1567, -17.5, 0, -0.25
1568, -17.5, 0.5, -0.25
1569, -17.75, 0, -0.25
1570, -17.5, 0.25, -0.25
1571, -17.75, 0.5, -0.25
1572, -17.5, 0, -0.375
1573, -17.5, 0.5, -0.375
1574, -17, 0, -0.25
1575, -17, 0.5, -0.25
1576, -17.25, 0, -0.25
1577, -17, 0.25, -0.25
1578, -17.25, 0.5, -0.25
1579, -17, 0, -0.375
1580, -17, 0.5, -0.375
1581, -16.5, 0, -0.25
1582, -16.5, 0.5, -0.25
1583, -16.75, 0, -0.25
1584, -16.5, 0.25, -0.25
1585, -16.75, 0.5, -0.25
1586, -16.5, 0, -0.375
1587, -16.5, 0.5, -0.375
1588, -16, 0, -0.25
1589, -16, 0.5, -0.25
1590, -16.25, 0, -0.25
1591, -16, 0.25, -0.25
1592, -16.25, 0.5, -0.25
1593, -16, 0, -0.375
1594, -16, 0.5, -0.375
1595, -15.5, 0, -0.25
1596, -15.5, 0.5, -0.25
1597, -15.75, 0, -0.25
1598, -15.5, 0.25, -0.25
1599, -15.75, 0.5, -0.25
1600, -15.5, 0, -0.375
1601, -15.5, 0.5, -0.375
1602, -15, 0, -0.25
1603, -15, 0.5, -0.25
1604, -15.25, 0, -0.25
1605, -15, 0.25, -0.25
1606, -15.25, 0.5, -0.25
1607, -15, 0, -0.375
1608, -15, 0.5, -0.375
1609, -14.5, 0, -0.25
1610, -14.5, 0.5, -0.25
1611, -14.75, 0, -0.25
1612, -14.5, 0.25, -0.25
1613, -14.75, 0.5, -0.25
1614, -14.5, 0, -0.375
1615, -14.5, 0.5, -0.375
1616, -14, 0, -0.25
1617, -14, 0.5, -0.25
1618, -14.25, 0, -0.25
1619, -14, 0.25, -0.25
1620, -14.25, 0.5, -0.25
1621, -14, 0, -0.375
1622, -14, 0.5, -0.375
1623, -13.5, 0, -0.25
1624, -13.5, 0.5, -0.25
1625, -13.75, 0, -0.25
1626, -13.5, 0.25, -0.25
1627, -13.75, 0.5, -0.25
1628, -13.5, 0, -0.375
1629, -13.5, 0.5, -0.375
1630, -13, 0, -0.25
1631, -13, 0.5, -0.25
1632, -13.25, 0, -0.25
1633, -13, 0.25, -0.25
1634, -13.25, 0.5, -0.25
1635, -13, 0, -0.375
1636, -13, 0.5, -0.375
1637, -12.5, 0, -0.25
1638, -12.5, 0.5, -0.25
1639, -12.75, 0, -0.25
1640, -12.5, 0.25, -0.25
1641, -12.75, 0.5, -0.25
1642, -12.5, 0, -0.375
1643, -12.5, 0.5, -0.375
1644, -12, 0, -0.25
1645, -12, 0.5, -0.25
1646, -12.25, 0, -0.25
1647, -12, 0.25, -0.25
1648, -12.25, 0.5, -0.25
1649, -12, 0, -0.375
1650, -12, 0.5, -0.375
1651, -11.5, 0, -0.25
1652, -11.5, 0.5, -0.25
1653, -11.75, 0, -0.25
1654, -11.5, 0.25, -0.25
1655, -11.75, 0.5, -0.25
1656, -11.5, 0, -0.375
1657, -11.5, 0.5, -0.375
1658, -11, 0, -0.25
1659, -11, 0.5, -0.25
1660, -11.25, 0, -0.25
1661, -11, 0.25, -0.25
1662, -11.25, 0.5, -0.25
1663, -11, 0, -0.375
1664, -11, 0.5, -0.375
1665, -10.5, 0, -0.25
1666, -10.5, 0.5, -0.25
1667, -10.75, 0, -0.25
1668, -10.5, 0.25, -0.25
1669, -10.75, 0.5, -0.25
1670, -10.5, 0, -0.375
1671, -10.5, 0.5, -0.375
1672, -10, 0, -0.25
1673, -10, 0.5, -0.25
1674, -10.25, 0, -0.25
1675, -10, 0.25, -0.25
1676, -10.25, 0.5, -0.25
1677, -10, 0, -0.375
1678, -10, 0.5, -0.375
1679, -9.5, 0, -0.25
1680, -9.5, 0.5, -0.25
1681, -9.75, 0, -0.25
1682, -9.5, 0.25, -0.25
1683, -9.75, 0.5, -0.25
1684, -9.5, 0, -0.375
1685, -9.5, 0.5, -0.375
1686, -9, 0, -0.25
1687, -9, 0.5, -0.25
1688, -9.25, 0, -0.25
1689, -9, 0.25, -0.25
1690, -9.25, 0.5, -0.25
1691, -9, 0, -0.375
1692, -9, 0.5, -0.375
1693, -8.5, 0, -0.25
1694, -8.5, 0.5, -0.25
1695, -8.75, 0, -0.25
1696, -8.5, 0.25, -0.25
1697, -8.75, 0.5, -0.25
1698, -8.5, 0, -0.375
1699, -8.5, 0.5, -0.375
1700, -8, 0, -0.25
1701, -8, 0.5, -0.25
1702, -8.25, 0, -0.25
1703, -8, 0.25, -0.25
1704, -8.25, 0.5, -0.25
1705, -8, 0, -0.375
1706, -8, 0.5, -0.375
1707, -7.5, 0, -0.25
1708, -7.5, 0.5, -0.25
1709, -7.75, 0, -0.25
1710, -7.5, 0.25, -0.25
1711, -7.75, 0.5, -0.25
1712, -7.5, 0, -0.375
1713, -7.5, 0.5, -0.375
1714, -7, 0, -0.25
1715, -7, 0.5, -0.25
1716, -7.25, 0, -0.25
1717, -7, 0.25, -0.25
1718, -7.25, 0.5, -0.25
1719, -7, 0, -0.375
1720, -7, 0.5, -0.375
1721, -6.5, 0, -0.25
1722, -6.5, 0.5, -0.25
1723, -6.75, 0, -0.25
1724, -6.5, 0.25, -0.25
1725, -6.75, 0.5, -0.25
1726, -6.5, 0, -0.375
1727, -6.5, 0.5, -0.375
1728, -6, 0, -0.25
1729, -6, 0.5, -0.25
1730, -6.25, 0, -0.25
1731, -6, 0.25, -0.25
1732, -6.25, 0.5, -0.25
1733, -6, 0, -0.375
1734, -6, 0.5, -0.375
1735, -5.5, 0, -0.25
1736, -5.5, 0.5, -0.25
1737, -5.75, 0, -0.25
1738, -5.5, 0.25, -0.25
1739, -5.75, 0.5, -0.25
1740, -5.5, 0, -0.375
1741, -5.5, 0.5, -0.375
1742, -5, 0, -0.25
1743, -5, 0.5, -0.25
1744, -5.25, 0, -0.25
1745, -5, 0.25, -0.25
1746, -5.25, 0.5, -0.25
1747, -5, 0, -0.375
1748, -5, 0.5, -0.375
1749, -4.5, 0, -0.25
1750, -4.5, 0.5, -0.25
1751, -4.75, 0, -0.25
1752, -4.5, 0.25, -0.25
1753, -4.75, 0.5, -0.25
1754, -4.5, 0, -0.375
1755, -4.5, 0.5, -0.375
1756, -4, 0, -0.25
1757, -4, 0.5, -0.25
1758, -4.25, 0, -0.25
1759, -4, 0.25, -0.25
1760, -4.25, 0.5, -0.25
1761, -4, 0, -0.375
1762, -4, 0.5, -0.375
1763, -3.5, 0, -0.25
1764, -3.5, 0.5, -0.25
1765, -3.75, 0, -0.25
1766, -3.5, 0.25, -0.25
1767, -3.75, 0.5, -0.25
1768, -3.5, 0, -0.375
1769, -3.5, 0.5, -0.375
1770, -3, 0, -0.25
1771, -3, 0.5, -0.25
1772, -3.25, 0, -0.25
1773, -3, 0.25, -0.25
1774, -3.25, 0.5, -0.25
1775, -3, 0, -0.375
1776, -3, 0.5, -0.375
1777, -2.5, 0, -0.25
1778, -2.5, 0.5, -0.25
1779, -2.75, 0, -0.25
1780, -2.5, 0.25, -0.25
1781, -2.75, 0.5, -0.25
1782, -2.5, 0, -0.375
1783, -2.5, 0.5, -0.375
1784, -2, 0, -0.25
1785, -2, 0.5, -0.25
1786, -2.25, 0, -0.25
1787, -2, 0.25, -0.25
1788, -2.25, 0.5, -0.25
1789, -2, 0, -0.375
1790, -2, 0.5, -0.375
1791, -1.5, 0, -0.25
1792, -1.5, 0.5, -0.25
1793, -1.75, 0, -0.25
1794, -1.5, 0.25, -0.25
1795, -1.75, 0.5, -0.25
1796, -1.5, 0, -0.375
1797, -1.5, 0.5, -0.375
1798, -1, 0, -0.25
1799, -1, 0.5, -0.25
1800, -1.25, 0, -0.25
1801, -1, 0.25, -0.25
1802, -1.25, 0.5, -0.25
1803, -1, 0, -0.375
1804, -1, 0.5, -0.375
1805, -0.5, 0, -0.25
1806, -0.5, 0.5, -0.25
1807, -0.75, 0, -0.25
1808, -0.5, 0.25, -0.25
1809, -0.75, 0.5, -0.25
1810, -0.5, 0, -0.375
1811, -0.5, 0.5, -0.375
1812, 0, 0, -0.25
1813, 0, 0.5, -0.25
1814, -0.25, 0, -0.25
1815, 0, 0.25, -0.25
1816, -0.25, 0.5, -0.25
1817, 0, 0, -0.375
1818, 0, 0.5, -0.375
1819, 0.5, 0, -0.25
1820, 0.5, 0.5, -0.25
1821, 0.25, 0, -0.25
1822, 0.5, 0.25, -0.25
1823, 0.25, 0.5, -0.25
1824, 0.5, 0, -0.375
1825, 0.5, 0.5, -0.375
1826, 1, 0, -0.25
1827, 1, 0.5, -0.25
1828, 0.75, 0, -0.25
1829, 1, 0.25, -0.25
1830, 0.75, 0.5, -0.25
1831, 1, 0, -0.375
1832, 1, 0.5, -0.375
1833, 1.5, 0, -0.25
1834, 1.5, 0.5, -0.25
1835, 1.25, 0, -0.25
1836, 1.5, 0.25, -0.25
1837, 1.25, 0.5, -0.25
1838, 1.5, 0, -0.375
1839, 1.5, 0.5, -0.375
1840, 2, 0, -0.25
1841, 2, 0.5, -0.25
1842, 1.75, 0, -0.25
1843, 2, 0.25, -0.25
1844, 1.75, 0.5, -0.25
1845, 2, 0, -0.375
1846, 2, 0.5, -0.375
1847, 2.5, 0, -0.25
1848, 2.5, 0.5, -0.25
1849, 2.25, 0, -0.25
1850, 2.5, 0.25, -0.25
1851, 2.25, 0.5, -0.25
1852, 2.5, 0, -0.375
1853, 2.5, 0.5, -0.375
1854, 3, 0, -0.25
1855, 3, 0.5, -0.25
1856, 2.75, 0, -0.25
1857, 3, 0.25, -0.25
1858, 2.75, 0.5, -0.25
1859, 3, 0, -0.375
1860, 3, 0.5, -0.375
1861, 3.5, 0, -0.25
1862, 3.5, 0.5, -0.25
1863, 3.25, 0, -0.25
1864, 3.5, 0.25, -0.25
1865, 3.25, 0.5, -0.25
1866, 3.5, 0, -0.375
1867, 3.5, 0.5, -0.375
1868, 4, 0, -0.25
1869, 4, 0.5, -0.25
1870, 3.75, 0, -0.25
1871, 4, 0.25, -0.25
1872, 3.75, 0.5, -0.25
1873, 4, 0, -0.375
1874, 4, 0.5, -0.375
1875, 4.5, 0, -0.25
1876, 4.5, 0.5, -0.25
1877, 4.25, 0, -0.25
1878, 4.5, 0.25, -0.25
1879, 4.25, 0.5, -0.25
1880, 4.5, 0, -0.375
1881, 4.5, 0.5, -0.375
1882, 5, 0, -0.25
1883, 5, 0.5, -0.25
1884, 4.75, 0, -0.25
1885, 5, 0.25, -0.25
1886, 4.75, 0.5, -0.25
1887, 5, 0, -0.375
1888, 5, 0.5, -0.375
1889, 5.5, 0, -0.25
1890, 5.5, 0.5, -0.25
1891, 5.25, 0, -0.25
1892, 5.5, 0.25, -0.25
1893, 5.25, 0.5, -0.25
1894, 5.5, 0, -0.375
1895, 5.5, 0.5, -0.375
1896, 6, 0, -0.25
1897, 6, 0.5, -0.25
1898, 5.75, 0, -0.25
1899, 6, 0.25, -0.25
1900, 5.75, 0.5, -0.25
1901, 6, 0, -0.375
1902, 6, 0.5, -0.375
1903, 6.5, 0, -0.25
1904, 6.5, 0.5, -0.25
1905, 6.25, 0, -0.25
1906, 6.5, 0.25, -0.25
1907, 6.25, 0.5, -0.25
1908, 6.5, 0, -0.375
1909, 6.5, 0.5, -0.375
1910, 7, 0, -0.25
1911, 7, 0.5, -0.25
1912, 6.75, 0, -0.25
1913, 7, 0.25, -0.25
1914, 6.75, 0.5, -0.25
1915, 7, 0, -0.375
1916, 7, 0.5, -0.375
1917, 7.5, 0, -0.25
1918, 7.5, 0.5, -0.25
1919, 7.25, 0, -0.25
1920, 7.5, 0.25, -0.25
1921, 7.25, 0.5, -0.25
1922, 7.5, 0, -0.375
1923, 7.5, 0.5, -0.375
1924, 8, 0, -0.25
1925, 8, 0.5, -0.25
1926, 7.75, 0, -0.25
1927, 8, 0.25, -0.25
1928, 7.75, 0.5, -0.25
1929, 8, 0, -0.375
1930, 8, 0.5, -0.375
1931, 8.5, 0, -0.25
1932, 8.5, 0.5, -0.25
1933, 8.25, 0, -0.25
1934, 8.5, 0.25, -0.25
1935, 8.25, 0.5, -0.25
1936, 8.5, 0, -0.375
1937, 8.5, 0.5, -0.375
1938, 9, 0, -0.25
1939, 9, 0.5, -0.25
1940, 8.75, 0, -0.25
1941, 9, 0.25, -0.25
1942, 8.75, 0.5, -0.25
1943, 9, 0, -0.375
1944, 9, 0.5, -0.375
1945, 9.5, 0, -0.25
1946, 9.5, 0.5, -0.25
1947, 9.25, 0, -0.25
1948, 9.5, 0.25, -0.25
1949, 9.25, 0.5, -0.25
1950, 9.5, 0, -0.375
1951, 9.5, 0.5, -0.375
1952, 10, 0, -0.25
1953, 10, 0.5, -0.25
1954, 9.75, 0, -0.25
1955, 10, 0.25, -0.25
1956, 9.75, 0.5, -0.25
1957, 10, 0, -0.375
1958, 10, 0.5, -0.375
1959, 10.5, 0, -0.25
1960, 10.5, 0.5, -0.25
1961, 10.25, 0, -0.25
1962, 10.5, 0.25, -0.25
1963, 10.25, 0.5, -0.25
1964, 10.5, 0, -0.375
1965, 10.5, 0.5, -0.375
1966, 11, 0, -0.25
1967, 11, 0.5, -0.25
1968, 10.75, 0, -0.25
1969, 11, 0.25, -0.25
1970, 10.75, 0.5, -0.25
1971, 11, 0, -0.375
1972, 11, 0.5, -0.375
1973, 11.5, 0, -0.25
1974, 11.5, 0.5, -0.25
1975, 11.25, 0, -0.25
1976, 11.5, 0.25, -0.25
1977, 11.25, 0.5, -0.25
1978, 11.5, 0, -0.375
1979, 11.5, 0.5, -0.375
1980, 12, 0, -0.25
1981, 12, 0.5, -0.25
1982, 11.75, 0, -0.25
1983, 12, 0.25, -0.25
1984, 11.75, 0.5, -0.25
1985, 12, 0, -0.375
1986, 12, 0.5, -0.375
1987, 12.5, 0, -0.25
1988, 12.5, 0.5, -0.25
1989, 12.25, 0, -0.25
1990, 12.5, 0.25, -0.25
1991, 12.25, 0.5, -0.25
1992, 12.5, 0, -0.375
1993, 12.5, 0.5, -0.375
1994, 13, 0, -0.25
1995, 13, 0.5, -0.25
1996, 12.75, 0, -0.25
1997, 13, 0.25, -0.25
1998, 12.75, 0.5, -0.25
1999, 13, 0, -0.375
2000, 13, 0.5, -0.375
2001, 13.5, 0, -0.25
2002, 13.5, 0.5, -0.25
2003, 13.25, 0, -0.25
2004, 13.5, 0.25, -0.25
2005, 13.25, 0.5, -0.25
2006, 13.5, 0, -0.375
2007, 13.5, 0.5, -0.375
2008, 14, 0, -0.25
2009, 14, 0.5, -0.25
2010, 13.75, 0, -0.25
2011, 14, 0.25, -0.25
2012, 13.75, 0.5, -0.25
2013, 14, 0, -0.375
2014, 14, 0.5, -0.375
2015, 14.5, 0, -0.25
2016, 14.5, 0.5, -0.25
2017, 14.25, 0, -0.25
2018, 14.5, 0.25, -0.25
2019, 14.25, 0.5, -0.25
2020, 14.5, 0, -0.375
2021, 14.5, 0.5, -0.375
2022, 15, 0, -0.25
2023, 15, 0.5, -0.25
2024, 14.75, 0, -0.25
2025, 15, 0.25, -0.25
2026, 14.75, 0.5, -0.25
2027, 15, 0, -0.375
2028, 15, 0.5, -0.375
2029, 15.5, 0, -0.25
2030, 15.5, 0.5, -0.25
2031, 15.25, 0, -0.25
2032, 15.5, 0.25, -0.25
2033, 15.25, 0.5, -0.25
2034, 15.5, 0, -0.375
2035, 15.5, 0.5, -0.375
2036, 16, 0, -0.25
2037, 16, 0.5, -0.25
2038, 15.75, 0, -0.25
2039, 16, 0.25, -0.25
2040, 15.75, 0.5, -0.25
2041, 16, 0, -0.375
2042, 16, 0.5, -0.375
2043, 16.5, 0, -0.25
2044, 16.5, 0.5, -0.25
2045, 16.25, 0, -0.25
2046, 16.5, 0.25, -0.25
2047, 16.25, 0.5, -0.25
2048, 16.5, 0, -0.375
2049, 16.5, 0.5, -0.375
2050, 17, 0, -0.25
2051, 17, 0.5, -0.25
2052, 16.75, 0, -0.25
2053, 17, 0.25, -0.25
2054, 16.75, 0.5, -0.25
2055, 17, 0, -0.375
2056, 17, 0.5, -0.375
2057, 17.5, 0, -0.25
2058, 17.5, 0.5, -0.25
2059, 17.25, 0, -0.25
2060, 17.5, 0.25, -0.25
2061, 17.25, 0.5, -0.25
2062, 17.5, 0, -0.375
2063, 17.5, 0.5, -0.375
2064, 18, 0, -0.25
2065, 18, 0.5, -0.25
2066, 17.75, 0, -0.25
2067, 18, 0.25, -0.25
2068, 17.75, 0.5, -0.25
2069, 18, 0, -0.375
2070, 18, 0.5, -0.375
2071, 18.5, 0, -0.25
2072, 18.5, 0.5, -0.25
2073, 18.25, 0, -0.25
2074, 18.5, 0.25, -0.25
2075, 18.25, 0.5, -0.25
2076, 18.5, 0, -0.375
2077, 18.5, 0.5, -0.375
2078, 19, 0, -0.25
2079, 19, 0.5, -0.25
2080, 18.75, 0, -0.25
2081, 19, 0.25, -0.25
2082, 18.75, 0.5, -0.25
2083, 19, 0, -0.375
2084, 19, 0.5, -0.375
2085, 19.5, 0, -0.25
2086, 19.5, 0.5, -0.25
2087, 19.25, 0, -0.25
2088, 19.5, 0.25, -0.25
2089, 19.25, 0.5, -0.25
2090, 19.5, 0, -0.375
2091, 19.5, 0.5, -0.375
2092, 20, 0, -0.25
2093, 20, 0.5, -0.25
2094, 19.75, 0, -0.25
2095, 20, 0.25, -0.25
2096, 19.75, 0.5, -0.25
2097, 20, 0, -0.375
2098, 20, 0.5, -0.375
2099, -20, 0, 0
2100, -19.5, 0, 0
2101, -19.5, 0.5, 0
2102, -20, 0.5, 0
2103, -19.75, 0, 0
2104, -19.5, 0.25, 0
2105, -19.75, 0.5, 0
2106, -20, 0.25, 0
2107, -20, 0, -0.125
2108, -19.5, 0, -0.125
2109, -19.5, 0.5, -0.125
2110, -20, 0.5, -0.125
2111, -19, 0, 0
2112, -19, 0.5, 0
2113, -19.25, 0, 0
2114, -19, 0.25, 0
2115, -19.25, 0.5, 0
2116, -19, 0, -0.125
2117, -19, 0.5, -0.125
2118, -18.5, 0, 0
2119, -18.5, 0.5, 0
2120, -18.75, 0, 0
2121, -18.5, 0.25, 0
2122, -18.75, 0.5, 0
2123, -18.5, 0, -0.125
2124, -18.5, 0.5, -0.125
2125, -18, 0, 0
2126, -18, 0.5, 0
2127, -18.25, 0, 0
2128, -18, 0.25, 0
2129, -18.25, 0.5, 0
2130, -18, 0, -0.125
2131, -18, 0.5, -0.125
2132, -17.5, 0, 0
2133, -17.5, 0.5, 0
2134, -17.75, 0, 0
2135, -17.5, 0.25, 0
2136, -17.75, 0.5, 0
2137, -17.5, 0, -0.125
2138, -17.5, 0.5, -0.125
2139, -17, 0, 0
2140, -17, 0.5, 0
2141, -17.25, 0, 0
2142, -17, 0.25, 0
2143, -17.25, 0.5, 0
2144, -17, 0, -0.125
2145, -17, 0.5, -0.125
2146, -16.5, 0, 0
2147, -16.5, 0.5, 0
2148, -16.75, 0, 0
2149, -16.5, 0.25, 0
2150, -16.75, 0.5, 0
2151, -16.5, 0, -0.125
2152, -16.5, 0.5, -0.125
2153, -16, 0, 0
2154, -16, 0.5, 0
2155, -16.25, 0, 0
2156, -16, 0.25, 0
2157, -16.25, 0.5, 0
2158, -16, 0, -0.125
2159, -16, 0.5, -0.125
2160, -15.5, 0, 0
2161, -15.5, 0.5, 0
2162, -15.75, 0, 0
2163, -15.5, 0.25, 0
2164, -15.75, 0.5, 0
2165, -15.5, 0, -0.125
2166, -15.5, 0.5, -0.125
2167, -15, 0, 0
2168, -15, 0.5, 0
2169, -15.25, 0, 0
2170, -15, 0.25, 0
2171, -15.25, 0.5, 0
2172, -15, 0, -0.125
2173, -15, 0.5, -0.125
2174, -14.5, 0, 0
2175, -14.5, 0.5, 0
2176, -14.75, 0, 0
2177, -14.5, 0.25, 0
2178, -14.75, 0.5, 0
2179, -14.5, 0, -0.125
2180, -14.5, 0.5, -0.125
2181, -14, 0, 0
2182, -14, 0.5, 0
2183, -14.25, 0, 0
2184, -14, 0.25, 0
2185, -14.25, 0.5, 0
2186, -14, 0, -0.125
2187, -14, 0.5, -0.125
2188, -13.5, 0, 0
2189, -13.5, 0.5, 0
2190, -13.75, 0, 0
2191, -13.5, 0.25, 0
2192, -13.75, 0.5, 0
2193, -13.5, 0, -0.125
2194, -13.5, 0.5, -0.125
2195, -13, 0, 0
2196, -13, 0.5, 0
2197, -13.25, 0, 0
2198, -13, 0.25, 0
2199, -13.25, 0.5, 0
2200, -13, 0, -0.125
2201, -13, 0.5, -0.125
2202, -12.5, 0, 0
2203, -12.5, 0.5, 0
2204, -12.75, 0, 0
2205, -12.5, 0.25, 0
2206, -12.75, 0.5, 0
2207, -12.5, 0, -0.125
2208, -12.5, 0.5, -0.125
2209, -12, 0, 0
2210, -12, 0.5, 0
2211, -12.25, 0, 0
2212, -12, 0.25, 0
2213, -12.25, 0.5, 0
2214, -12, 0, -0.125
2215, -12, 0.5, -0.125
2216, -11.5, 0, 0
2217, -11.5, 0.5, 0
2218, -11.75, 0, 0
2219, -11.5, 0.25, 0
2220, -11.75, 0.5, 0
2221, -11.5, 0, -0.125
2222, -11.5, 0.5, -0.125
2223, -11, 0, 0
2224, -11, 0.5, 0
2225, -11.25, 0, 0
2226, -11, 0.25, 0
2227, -11.25, 0.5, 0
2228, -11, 0, -0.125
2229, -11, 0.5, -0.125
2230, -10.5, 0, 0
2231, -10.5, 0.5, 0
2232, -10.75, 0, 0
2233, -10.5, 0.25, 0
2234, -10.75, 0.5, 0
2235, -10.5, 0, -0.125
2236, -10.5, 0.5, -0.125
2237, -10, 0, 0
2238, -10, 0.5, 0
2239, -10.25, 0, 0
2240, -10, 0.25, 0
2241, -10.25, 0.5, 0
2242, -10, 0, -0.125
2243, -10, 0.5, -0.125
2244, -9.5, 0, 0
2245, -9.5, 0.5, 0
2246, -9.75, 0, 0
2247, -9.5, 0.25, 0
2248, -9.75, 0.5, 0
2249, -9.5, 0, -0.125
2250, -9.5, 0.5, -0.125
2251, -9, 0, 0
2252, -9, 0.5, 0
2253, -9.25, 0, 0
2254, -9, 0.25, 0
2255, -9.25, 0.5, 0
2256, -9, 0, -0.125
2257, -9, 0.5, -0.125
2258, -8.5, 0, 0
2259, -8.5, 0.5, 0
2260, -8.75, 0, 0
2261, -8.5, 0.25, 0
2262, -8.75, 0.5, 0
2263, -8.5, 0, -0.125
2264, -8.5, 0.5, -0.125
2265, -8, 0, 0
2266, -8, 0.5, 0
2267, -8.25, 0, 0
2268, -8, 0.25, 0
2269, -8.25, 0.5, 0
2270, -8, 0, -0.125
2271, -8, 0.5, -0.125
2272, -7.5, 0, 0
2273, -7.5, 0.5, 0
2274, -7.75, 0, 0
2275, -7.5, 0.25, 0
2276, -7.75, 0.5, 0
2277, -7.5, 0, -0.125
2278, -7.5, 0.5, -0.125
2279, -7, 0, 0
2280, -7, 0.5, 0
2281, -7.25, 0, 0
2282, -7, 0.25, 0
2283, -7.25, 0.5, 0
2284, -7, 0, -0.125
2285, -7, 0.5, -0.125
2286, -6.5, 0, 0
2287, -6.5, 0.5, 0
2288, -6.75, 0, 0
2289, -6.5, 0.25, 0
2290, -6.75, 0.5, 0
2291, -6.5, 0, -0.125
2292, -6.5, 0.5, -0.125
2293, -6, 0, 0
2294, -6, 0.5, 0
2295, -6.25, 0, 0
2296, -6, 0.25, 0
2297, -6.25, 0.5, 0
2298, -6, 0, -0.125
2299, -6, 0.5, -0.125
2300, -5.5, 0, 0
2301, -5.5, 0.5, 0
2302, -5.75, 0, 0
2303, -5.5, 0.25, 0
2304, -5.75, 0.5, 0
2305, -5.5, 0, -0.125
2306, -5.5, 0.5, -0.125
2307, -5, 0, 0
2308, -5, 0.5, 0
2309, -5.25, 0, 0
2310, -5, 0.25, 0
2311, -5.25, 0.5, 0
2312, -5, 0, -0.125
2313, -5, 0.5, -0.125
2314, -4.5, 0, 0
2315, -4.5, 0.5, 0
2316, -4.75, 0, 0
2317, -4.5, 0.25, 0
2318, -4.75, 0.5, 0
2319, -4.5, 0, -0.125
2320, -4.5, 0.5, -0.125
2321, -4, 0, 0
2322, -4, 0.5, 0
2323, -4.25, 0, 0
2324, -4, 0.25, 0
2325, -4.25, 0.5, 0
2326, -4, 0, -0.125
2327, -4, 0.5, -0.125
2328, -3.5, 0, 0
2329, -3.5, 0.5, 0
2330, -3.75, 0, 0
2331, -3.5, 0.25, 0
2332, -3.75, 0.5, 0
2333, -3.5, 0, -0.125
2334, -3.5, 0.5, -0.125
2335, -3, 0, 0
2336, -3, 0.5, 0
2337, -3.25, 0, 0
2338, -3, 0.25, 0
2339, -3.25, 0.5, 0
2340, -3, 0, -0.125
2341, -3, 0.5, -0.125
2342, -2.5, 0, 0
2343, -2.5, 0.5, 0
2344, -2.75, 0, 0
2345, -2.5, 0.25, 0
2346, -2.75, 0.5, 0
2347, -2.5, 0, -0.125
2348, -2.5, 0.5, -0.125
2349, -2, 0, 0
2350, -2, 0.5, 0
2351, -2.25, 0, 0
2352, -2, 0.25, 0
2353, -2.25, 0.5, 0
2354, -2, 0, -0.125
2355, -2, 0.5, -0.125
2356, -1.5, 0, 0
2357, -1.5, 0.5, 0
2358, -1.75, 0, 0
2359, -1.5, 0.25, 0
2360, -1.75, 0.5, 0
2361, -1.5, 0, -0.125
2362, -1.5, 0.5, -0.125
2363, -1, 0, 0
2364, -1, 0.5, 0
2365, -1.25, 0, 0
2366, -1, 0.25, 0
2367, -1.25, 0.5, 0
2368, -1, 0, -0.125
2369, -1, 0.5, -0.125
2370, -0.5, 0, 0
2371, -0.5, 0.5, 0
2372, -0.75, 0, 0
2373, -0.5, 0.25, 0
2374, -0.75, 0.5, 0
2375, -0.5, 0, -0.125
2376, -0.5, 0.5, -0.125
2377, 0, 0, 0
2378, 0, 0.5, 0
2379, -0.25, 0, 0
2380, 0, 0.25, 0
2381, -0.25, 0.5, 0
2382, 0, 0, -0.125
2383, 0, 0.5, -0.125
2384, 0.5, 0, 0
2385, 0.5, 0.5, 0
2386, 0.25, 0, 0
2387, 0.5, 0.25, 0
2388, 0.25, 0.5, 0
2389, 0.5, 0, -0.125
2390, 0.5, 0.5, -0.125
2391, 1, 0, 0
2392, 1, 0.5, 0
2393, 0.75, 0, 0
2394, 1, 0.25, 0
2395, 0.75, 0.5, 0
2396, 1, 0, -0.125
2397, 1, 0.5, -0.125
2398, 1.5, 0, 0
2399, 1.5, 0.5, 0
2400, 1.25, 0, 0
2401, 1.5, 0.25, 0
2402, 1.25, 0.5, 0
2403, 1.5, 0, -0.125
2404, 1.5, 0.5, -0.125
2405, 2, 0, 0
2406, 2, 0.5, 0
2407, 1.75, 0, 0
2408, 2, 0.25, 0
2409, 1.75, 0.5, 0
2410, 2, 0, -0.125
2411, 2, 0.5, -0.125
2412, 2.5, 0, 0
2413, 2.5, 0.5, 0
2414, 2.25, 0, 0
2415, 2.5, 0.25, 0
2416, 2.25, 0.5, 0
2417, 2.5, 0, -0.125
2418, 2.5, 0.5, -0.125
2419, 3, 0, 0
2420, 3, 0.5, 0
2421, 2.75, 0, 0
2422, 3, 0.25, 0
2423, 2.75, 0.5, 0
2424, 3, 0, -0.125
2425, 3, 0.5, -0.125
2426, 3.5, 0, 0
2427, 3.5, 0.5, 0
2428, 3.25, 0, 0
2429, 3.5, 0.25, 0
2430, 3.25, 0.5, 0
2431, 3.5, 0, -0.125
2432, 3.5, 0.5, -0.125
2433, 4, 0, 0
2434, 4, 0.5, 0
2435, 3.75, 0, 0
2436, 4, 0.25, 0
2437, 3.75, 0.5, 0
2438, 4, 0, -0.125
2439, 4, 0.5, -0.125
2440, 4.5, 0, 0
2441, 4.5, 0.5, 0
2442, 4.25, 0, 0
2443, 4.5, 0.25, 0
2444, 4.25, 0.5, 0
2445, 4.5, 0, -0.125
2446, 4.5, 0.5, -0.125
2447, 5, 0, 0
2448, 5, 0.5, 0
2449, 4.75, 0, 0
2450, 5, 0.25, 0
2451, 4.75, 0.5, 0
2452, 5, 0, -0.125
2453, 5, 0.5, -0.125
2454, 5.5, 0, 0
2455, 5.5, 0.5, 0
2456, 5.25, 0, 0
2457, 5.5, 0.25, 0
2458, 5.25, 0.5, 0
2459, 5.5, 0, -0.125
2460, 5.5, 0.5, -0.125
2461, 6, 0, 0
2462, 6, 0.5, 0
2463, 5.75, 0, 0
2464, 6, 0.25, 0
2465, 5.75, 0.5, 0
2466, 6, 0, -0.125
2467, 6, 0.5, -0.125
2468, 6.5, 0, 0
2469, 6.5, 0.5, 0
2470, 6.25, 0, 0
2471, 6.5, 0.25, 0
2472, 6.25, 0.5, 0
2473, 6.5, 0, -0.125
2474, 6.5, 0.5, -0.125
2475, 7, 0, 0
2476, 7, 0.5, 0
2477, 6.75, 0, 0
2478, 7, 0.25, 0
2479, 6.75, 0.5, 0
2480, 7, 0, -0.125
2481, 7, 0.5, -0.125
2482, 7.5, 0, 0
2483, 7.5, 0.5, 0
2484, 7.25, 0, 0
2485, 7.5, 0.25, 0
2486, 7.25, 0.5, 0
2487, 7.5, 0, -0.125
2488, 7.5, 0.5, -0.125
2489, 8, 0, 0
2490, 8, 0.5, 0
2491, 7.75, 0, 0
2492, 8, 0.25, 0
2493, 7.75, 0.5, 0
2494, 8, 0, -0.125
2495, 8, 0.5, -0.125
2496, 8.5, 0, 0
2497, 8.5, 0.5, 0
2498, 8.25, 0, 0
2499, 8.5, 0.25, 0
2500, 8.25, 0.5, 0
2501, 8.5, 0, -0.125
2502, 8.5, 0.5, -0.125
2503, 9, 0, 0
2504, 9, 0.5, 0
2505, 8.75, 0, 0
2506, 9, 0.25, 0
2507, 8.75, 0.5, 0
2508, 9, 0, -0.125
2509, 9, 0.5, -0.125
2510, 9.5, 0, 0
2511, 9.5, 0.5, 0
2512, 9.25, 0, 0
2513, 9.5, 0.25, 0
2514, 9.25, 0.5, 0
2515, 9.5, 0, -0.125
2516, 9.5, 0.5, -0.125
2517, 10, 0, 0
2518, 10, 0.5, 0
2519, 9.75, 0, 0
2520, 10, 0.25, 0
2521, 9.75, 0.5, 0
2522, 10, 0, -0.125
2523, 10, 0.5, -0.125
2524, 10.5, 0, 0
2525, 10.5, 0.5, 0
2526, 10.25, 0, 0
2527, 10.5, 0.25, 0
2528, 10.25, 0.5, 0
2529, 10.5, 0, -0.125
2530, 10.5, 0.5, -0.125
2531, 11, 0, 0
2532, 11, 0.5, 0
2533, 10.75, 0, 0
2534, 11, 0.25, 0
2535, 10.75, 0.5, 0
2536, 11, 0, -0.125
2537, 11, 0.5, -0.125
2538, 11.5, 0, 0
2539, 11.5, 0.5, 0
2540, 11.25, 0, 0
2541, 11.5, 0.25, 0
2542, 11.25, 0.5, 0
2543, 11.5, 0, -0.125
2544, 11.5, 0.5, -0.125
2545, 12, 0, 0
2546, 12, 0.5, 0
2547, 11.75, 0, 0
2548, 12, 0.25, 0
2549, 11.75, 0.5, 0
2550, 12, 0, -0.125
2551, 12, 0.5, -0.125
2552, 12.5, 0, 0
2553, 12.5, 0.5, 0
2554, 12.25, 0, 0
2555, 12.5, 0.25, 0
2556, 12.25, 0.5, 0
2557, 12.5, 0, -0.125
2558, 12.5, 0.5, -0.125
2559, 13, 0, 0
2560, 13, 0.5, 0
2561, 12.75, 0, 0
2562, 13, 0.25, 0
2563, 12.75, 0.5, 0
2564, 13, 0, -0.125
2565, 13, 0.5, -0.125
2566, 13.5, 0, 0
2567, 13.5, 0.5, 0
2568, 13.25, 0, 0
2569, 13.5, 0.25, 0
2570, 13.25, 0.5, 0
2571, 13.5, 0, -0.125
2572, 13.5, 0.5, -0.125
2573, 14, 0, 0
2574, 14, 0.5, 0
2575, 13.75, 0, 0
2576, 14, 0.25, 0
2577, 13.75, 0.5, 0
2578, 14, 0, -0.125
2579, 14, 0.5, -0.125
2580, 14.5, 0, 0
2581, 14.5, 0.5, 0
2582, 14.25, 0, 0
2583, 14.5, 0.25, 0
2584, 14.25, 0.5, 0
2585, 14.5, 0, -0.125
2586, 14.5, 0.5, -0.125
2587, 15, 0, 0
2588, 15, 0.5, 0
2589, 14.75, 0, 0
2590, 15, 0.25, 0
2591, 14.75, 0.5, 0
2592, 15, 0, -0.125
2593, 15, 0.5, -0.125
2594, 15.5, 0, 0
2595, 15.5, 0.5, 0
2596, 15.25, 0, 0
2597, 15.5, 0.25, 0
2598, 15.25, 0.5, 0
2599, 15.5, 0, -0.125
2600, 15.5, 0.5, -0.125
2601, 16, 0, 0
2602, 16, 0.5, 0
2603, 15.75, 0, 0
2604, 16, 0.25, 0
2605, 15.75, 0.5, 0
2606, 16, 0, -0.125
2607, 16, 0.5, -0.125
2608, 16.5, 0, 0
2609, 16.5, 0.5, 0
2610, 16.25, 0, 0
2611, 16.5, 0.25, 0
2612, 16.25, 0.5, 0
2613, 16.5, 0, -0.125
2614, 16.5, 0.5, -0.125
2615, 17, 0, 0
2616, 17, 0.5, 0
2617, 16.75, 0, 0
2618, 17, 0.25, 0
2619, 16.75, 0.5, 0
2620, 17, 0, -0.125
2621, 17, 0.5, -0.125
2622, 17.5, 0, 0
2623, 17.5, 0.5, 0
2624, 17.25, 0, 0
2625, 17.5, 0.25, 0
2626, 17.25, 0.5, 0
2627, 17.5, 0, -0.125
2628, 17.5, 0.5, -0.125
2629, 18, 0, 0
2630, 18, 0.5, 0
2631, 17.75, 0, 0
2632, 18, 0.25, 0
2633, 17.75, 0.5, 0
2634, 18, 0, -0.125
2635, 18, 0.5, -0.125
2636, 18.5, 0, 0
2637, 18.5, 0.5, 0
2638, 18.25, 0, 0
2639, 18.5, 0.25, 0
2640, 18.25, 0.5, 0
2641, 18.5, 0, -0.125
2642, 18.5, 0.5, -0.125
2643, 19, 0, 0
2644, 19, 0.5, 0
2645, 18.75, 0, 0
2646, 19, 0.25, 0
2647, 18.75, 0.5, 0
2648, 19, 0, -0.125
2649, 19, 0.5, -0.125
2650, 19.5, 0, 0
2651, 19.5, 0.5, 0
2652, 19.25, 0, 0
2653, 19.5, 0.25, 0
2654, 19.25, 0.5, 0
2655, 19.5, 0, -0.125
2656, 19.5, 0.5, -0.125
2657, 20, 0, 0
2658, 20, 0.5, 0
2659, 19.75, 0, 0
2660, 20, 0.25, 0
2661, 19.75, 0.5, 0
2662, 20, 0, -0.125
2663, 20, 0.5, -0.125
*NODE, NSET=PUNCH
2664, -3.93923101205, -1, 4.69459271067
2665, -3.95075336238, -1, 4.62573786016
2666, -3.96107227497, -1, 4.55669240384
2667, -3.97018460657, -1, 4.48747737362
2668, -3.97808758147, -1, 4.41811385307
2669, -3.98477879237, -1, 4.34862297099
2670, -3.99025620104, -1, 4.27902589498
2671, -3.99451813902, -1, 4.20934382497
2672, -3.99756330808, -1, 4.13959798681
2673, -3.99939078063, -1, 4.06980962575
2674, -4, -1, 4
2675, -3.99939078063, -1, 3.93019037425
2676, -3.99756330808, -1, 3.86040201319
2677, -3.99451813902, -1, 3.79065617503
2678, -3.99025620104, -1, 3.72097410502
2679, -3.98477879237, -1, 3.65137702901
2680, -3.97808758147, -1, 3.58188614693
2681, -3.97018460657, -1, 3.51252262638
2682, -3.96107227497, -1, 3.44330759616
2683, -3.95075336238, -1, 3.37426213984
2684, -3.93923101205, -1, 3.30540728933
2685, -3.92650873379, -1, 3.23676401849
2686, -3.91259040294, -1, 3.16835323673
2687, -3.89748025914, -1, 3.10019578262
2688, -3.8811829051, -1, 3.0323124176
2689, -3.86370330516, -1, 2.96472381959
2690, -3.84504678375, -1, 2.89745057673
2691, -3.82521902385, -1, 2.83051318111
2692, -3.80422606518, -1, 2.7639320225
2693, -3.7820743024, -1, 2.69772738217
2694, -3.75877048314, -1, 2.6319194267
2695, -3.73432170599, -1, 2.56652820182
2696, -3.70873541827, -1, 2.50157362634
2697, -3.68201941381, -1, 2.43707548604
2698, -3.65418183057, -1, 2.3730534277
2699, -3.62523114815, -1, 2.30952695304
2700, -3.5951761852, -1, 2.24651541284
2701, -3.56402609675, -1, 2.18403800104
2702, -3.53179037144, -1, 2.12211374886
2703, -3.49847882856, -1, 2.06076151901
2704, -3.46410161514, -1, 2
2705, -3.42866920281, -1, 1.93984770036
2706, -3.39219238463, -1, 1.88032294307
2707, -3.35468227178, -1, 1.82144385994
2708, -3.31615029022, -1, 1.76322838612
2709, -3.27660817716, -1, 1.7056942546
2710, -3.2360679775, -1, 1.64885899083
2711, -3.19454204019, -1, 1.59273990739
2712, -3.15204301443, -1, 1.5373540987
2713, -3.10858384583, -1, 1.4827184358
2714, -3.06417777248, -1, 1.42884956125
2715, -3.01883832089, -1, 1.37576388404
2716, -2.97257930191, -1, 1.32347757456
2717, -2.92541480648, -1, 1.27200655975
2718, -2.87735920135, -1, 1.22136651816
2719, -2.82842712475, -1, 1.17157287525
2720, -2.77863348184, -1, 1.12264079865
2721, -2.72799344025, -1, 1.07458519352
2722, -2.67652242544, -1, 1.02742069809
2723, -2.62423611596, -1, 0.981161679109
2724, -2.57115043875, -1, 0.935822227524
2725, -2.5172815642, -1, 0.891416154172
2726, -2.4626459013, -1, 0.847956985573
2727, -2.40726009261, -1, 0.805457959811
2728, -2.35114100917, -1, 0.7639320225
2729, -2.2943057454, -1, 0.723391822844
2730, -2.23677161388, -1, 0.68384970978
2731, -2.17855614006, -1, 0.645317728218
2732, -2.11967705693, -1, 0.607807615374
2733, -2.06015229964, -1, 0.571330797192
2734, -2, -1, 0.535898384862
2735, -1.93923848099, -1, 0.501521171442
2736, -1.87788625114, -1, 0.468209628564
2737, -1.81596199896, -1, 0.435973903247
2738, -1.75348458716, -1, 0.404823814803
2739, -1.69047304696, -1, 0.374768851853
2740, -1.6269465723, -1, 0.34581816943
2741, -1.56292451396, -1, 0.31798058619
2742, -1.49842637366, -1, 0.291264581733
2743, -1.43347179818, -1, 0.265678294011
2744, -1.3680805733, -1, 0.241229516856
2745, -1.30227261783, -1, 0.217925697603
2746, -1.2360679775, -1, 0.195773934819
2747, -1.16948681889, -1, 0.174780976148
2748, -1.10254942327, -1, 0.154953216247
2749, -1.03527618041, -1, 0.136296694844
2750, -0.967687582399, -1, 0.118817094896
2751, -0.899804217375, -1, 0.102519740859
2752, -0.831646763271, -1, 0.0874095970648
2753, -0.763235981506, -1, 0.0734912662093
2754, -0.694592710668, -1, 0.0607689879512
2755, -0.625737860161, -1, 0.0492466376194
2756, -0.55669240384, -1, 0.0389277250337
2757, -0.487477373621, -1, 0.0298153934347
2758, -0.418113853071, -1, 0.0219124185269
2759, -0.348622970991, -1, 0.015221207633
2760, -0.279025894977, -1, 0.0097437989607
2761, -0.209343824972, -1, 0.0054818609817
2762, -0.13959798681, -1, 0.00243669192362
2763, -0.0698096257491, -1, 0.000609219374435
2764, 0, -1, 0
2765, 0.0698096257491, -1, 0.000609219374435
2766, 0.13959798681, -1, 0.00243669192362
2767, 0.209343824972, -1, 0.0054818609817
2768, 0.279025894977, -1, 0.0097437989607
2769, 0.348622970991, -1, 0.015221207633
2770, 0.418113853071, -1, 0.0219124185269
2771, 0.487477373621, -1, 0.0298153934347
2772, 0.55669240384, -1, 0.0389277250337
2773, 0.625737860161, -1, 0.0492466376194
2774, 0.694592710668, -1, 0.0607689879512
2775, 0.763235981506, -1, 0.0734912662093
2776, 0.831646763271, -1, 0.0874095970648
2777, 0.899804217375, -1, 0.102519740859
2778, 0.967687582399, -1, 0.118817094896
2779, 1.03527618041, -1, 0.136296694844
2780, 1.10254942327, -1, 0.154953216247
2781, 1.16948681889, -1, 0.174780976148
2782, 1.2360679775, -1, 0.195773934819
2783, 1.30227261783, -1, 0.217925697603
2784, 1.3680805733, -1, 0.241229516856
2785, 1.43347179818, -1, 0.265678294011
2786, 1.49842637366, -1, 0.291264581733
2787, 1.56292451396, -1, 0.31798058619
2788, 1.6269465723, -1, 0.34581816943
2789, 1.69047304696, -1, 0.374768851853
2790, 1.75348458716, -1, 0.404823814803
2791, 1.81596199896, -1, 0.435973903247
2792, 1.87788625114, -1, 0.468209628564
2793, 1.93923848099, -1, 0.501521171442
2794, 2, -1, 0.535898384862
2795, 2.06015229964, -1, 0.571330797192
2796, 2.11967705693, -1, 0.607807615374
2797, 2.17855614006, -1, 0.645317728218
2798, 2.23677161388, -1, 0.68384970978
2799, 2.2943057454, -1, 0.723391822844
2800, 2.35114100917, -1, 0.7639320225
2801, 2.40726009261, -1, 0.805457959811
2802, 2.4626459013, -1, 0.847956985573
2803, 2.5172815642, -1, 0.891416154172
2804, 2.57115043875, -1, 0.935822227524
2805, 2.62423611596, -1, 0.981161679109
2806, 2.67652242544, -1, 1.02742069809
2807, 2.72799344025, -1, 1.07458519352
2808, 2.77863348184, -1, 1.12264079865
2809, 2.82842712475, -1, 1.17157287525
2810, 2.87735920135, -1, 1.22136651816
2811, 2.92541480648, -1, 1.27200655975
2812, 2.97257930191, -1, 1.32347757456
2813, 3.01883832089, -1, 1.37576388404
2814, 3.06417777248, -1, 1.42884956125
2815, 3.10858384583, -1, 1.4827184358
2816, 3.15204301443, -1, 1.5373540987
2817, 3.19454204019, -1, 1.59273990739
2818, 3.2360679775, -1, 1.64885899083
2819, 3.27660817716, -1, 1.7056942546
2820, 3.31615029022, -1, 1.76322838612
2821, 3.35468227178, -1, 1.82144385994
2822, 3.39219238463, -1, 1.88032294307
2823, 3.42866920281, -1, 1.93984770036
2824, 3.46410161514, -1, 2
2825, 3.49847882856, -1, 2.06076151901
2826, 3.53179037144, -1, 2.12211374886
2827, 3.56402609675, -1, 2.18403800104
2828, 3.5951761852, -1, 2.24651541284
2829, 3.62523114815, -1, 2.30952695304
2830, 3.65418183057, -1, 2.3730534277
2831, 3.68201941381, -1, 2.43707548604
2832, 3.70873541827, -1, 2.50157362634
2833, 3.73432170599, -1, 2.56652820182
2834, 3.75877048314, -1, 2.6319194267
2835, 3.7820743024, -1, 2.69772738217
2836, 3.80422606518, -1, 2.7639320225
2837, 3.82521902385, -1, 2.83051318111
2838, 3.84504678375, -1, 2.89745057673
2839, 3.86370330516, -1, 2.96472381959
2840, 3.8811829051, -1, 3.0323124176
2841, 3.89748025914, -1, 3.10019578262
2842, 3.91259040294, -1, 3.16835323673
2843, 3.92650873379, -1, 3.23676401849
2844, 3.93923101205, -1, 3.30540728933
2845, 3.95075336238, -1, 3.37426213984
2846, 3.96107227497, -1, 3.44330759616
2847, 3.97018460657, -1, 3.51252262638
2848, 3.97808758147, -1, 3.58188614693
2849, 3.98477879237, -1, 3.65137702901
2850, 3.99025620104, -1, 3.72097410502
2851, 3.99451813902, -1, 3.79065617503
2852, 3.99756330808, -1, 3.86040201319
2853, 3.99939078063, -1, 3.93019037425
2854, 4, -1, 4
2855, 3.99939078063, -1, 4.06980962575
2856, 3.99756330808, -1, 4.13959798681
2857, 3.99451813902, -1, 4.20934382497
2858, 3.99025620104, -1, 4.27902589498
2859, 3.98477879237, -1, 4.34862297099
2860, 3.97808758147, -1, 4.41811385307
2861, 3.97018460657, -1, 4.48747737362
2862, 3.96107227497, -1, 4.55669240384
2863, 3.95075336238, -1, 4.62573786016
2864, 3.93923101205, -1, 4.69459271067
2865, -3.93923101205, 1.5, 4.69459271067
2866, -3.95075336238, 1.5, 4.62573786016
2867, -3.96107227497, 1.5, 4.55669240384
2868, -3.97018460657, 1.5, 4.48747737362
2869, -3.97808758147, 1.5, 4.41811385307
2870, -3.98477879237, 1.5, 4.34862297099
2871, -3.99025620104, 1.5, 4.27902589498
2872, -3.99451813902, 1.5, 4.20934382497
2873, -3.99756330808, 1.5, 4.13959798681
2874, -3.99939078063, 1.5, 4.06980962575
2875, -4, 1.5, 4
2876, -3.99939078063, 1.5, 3.93019037425
2877, -3.99756330808, 1.5, 3.86040201319
2878, -3.99451813902, 1.5, 3.79065617503
2879, -3.99025620104, 1.5, 3.72097410502
2880, -3.98477879237, 1.5, 3.65137702901
2881, -3.97808758147, 1.5, 3.58188614693
2882, -3.97018460657, 1.5, 3.51252262638
2883, -3.96107227497, 1.5, 3.44330759616
2884, -3.95075336238, 1.5, 3.37426213984
2885, -3.93923101205, 1.5, 3.30540728933
2886, -3.92650873379, 1.5, 3.23676401849
2887, -3.91259040294, 1.5, 3.16835323673
2888, -3.89748025914, 1.5, 3.10019578262
2889, -3.8811829051, 1.5, 3.0323124176
2890, -3.86370330516, 1.5, 2.96472381959
2891, -3.84504678375, 1.5, 2.89745057673
2892, -3.82521902385, 1.5, 2.83051318111
2893, -3.80422606518, 1.5, 2.7639320225
2894, -3.7820743024, 1.5, 2.69772738217
2895, -3.75877048314, 1.5, 2.6319194267
2896, -3.73432170599, 1.5, 2.56652820182
2897, -3.70873541827, 1.5, 2.50157362634
2898, -3.68201941381, 1.5, 2.43707548604
2899, -3.65418183057, 1.5, 2.3730534277
2900, -3.62523114815, 1.5, 2.30952695304
2901, -3.5951761852, 1.5, 2.24651541284
2902, -3.56402609675, 1.5, 2.18403800104
2903, -3.53179037144, 1.5, 2.12211374886
2904, -3.49847882856, 1.5, 2.06076151901
2905, -3.46410161514, 1.5, 2
2906, -3.42866920281, 1.5, 1.93984770036
2907, -3.39219238463, 1.5, 1.88032294307
2908, -3.35468227178, 1.5, 1.82144385994
2909, -3.31615029022, 1.5, 1.76322838612
2910, -3.27660817716, 1.5, 1.7056942546
2911, -3.2360679775, 1.5, 1.64885899083
2912, -3.19454204019, 1.5, 1.59273990739
2913, -3.15204301443, 1.5, 1.5373540987
2914, -3.10858384583, 1.5, 1.4827184358
2915, -3.06417777248, 1.5, 1.42884956125
2916, -3.01883832089, 1.5, 1.37576388404
2917, -2.97257930191, 1.5, 1.32347757456
2918, -2.92541480648, 1.5, 1.27200655975
2919, -2.87735920135, 1.5, 1.22136651816
2920, -2.82842712475, 1.5, 1.17157287525
2921, -2.77863348184, 1.5, 1.12264079865
2922, -2.72799344025, 1.5, 1.07458519352
2923, -2.67652242544, 1.5, 1.02742069809
2924, -2.62423611596, 1.5, 0.981161679109
2925, -2.57115043875, 1.5, 0.935822227524
2926, -2.5172815642, 1.5, 0.891416154172
2927, -2.4626459013, 1.5, 0.847956985573
2928, -2.40726009261, 1.5, 0.805457959811
2929, -2.35114100917, 1.5, 0.7639320225
2930, -2.2943057454, 1.5, 0.723391822844
2931, -2.23677161388, 1.5, 0.68384970978
2932, -2.17855614006, 1.5, 0.645317728218
2933, -2.11967705693, 1.5, 0.607807615374
2934, -2.06015229964, 1.5, 0.571330797192
2935, -2, 1.5, 0.535898384862
2936, -1.93923848099, 1.5, 0.501521171442
2937, -1.87788625114, 1.5, 0.468209628564
2938, -1.81596199896, 1.5, 0.435973903247
2939, -1.75348458716, 1.5, 0.404823814803
2940, -1.69047304696, 1.5, 0.374768851853
2941, -1.6269465723, 1.5, 0.34581816943
2942, -1.56292451396, 1.5, 0.31798058619
2943, -1.49842637366, 1.5, 0.291264581733
2944, -1.43347179818, 1.5, 0.265678294011
2945, -1.3680805733, 1.5, 0.241229516856
2946, -1.30227261783, 1.5, 0.217925697603
2947, -1.2360679775, 1.5, 0.195773934819
2948, -1.16948681889, 1.5, 0.174780976148
2949, -1.10254942327, 1.5, 0.154953216247
2950, -1.03527618041, 1.5, 0.136296694844
2951, -0.967687582399, 1.5, 0.118817094896
2952, -0.899804217375, 1.5, 0.102519740859
2953, -0.831646763271, 1.5, 0.0874095970648
2954, -0.763235981506, 1.5, 0.0734912662093
2955, -0.694592710668, 1.5, 0.0607689879512
2956, -0.625737860161, 1.5, 0.0492466376194
2957, -0.55669240384, 1.5, 0.0389277250337
2958, -0.487477373621, 1.5, 0.0298153934347
2959, -0.418113853071, 1.5, 0.0219124185269
2960, -0.348622970991, 1.5, 0.015221207633
2961, -0.279025894977, 1.5, 0.0097437989607
2962, -0.209343824972, 1.5, 0.0054818609817
2963, -0.13959798681, 1.5, 0.00243669192362
2964, -0.0698096257491, 1.5, 0.000609219374435
2965, 0, 1.5, 0
2966, 0.0698096257491, 1.5, 0.000609219374435
2967, 0.13959798681, 1.5, 0.00243669192362
2968, 0.209343824972, 1.5, 0.0054818609817
2969, 0.279025894977, 1.5, 0.0097437989607
2970, 0.348622970991, 1.5, 0.015221207633
2971, 0.418113853071, 1.5, 0.0219124185269
2972, 0.487477373621, 1.5, 0.0298153934347
2973, 0.55669240384, 1.5, 0.0389277250337
2974, 0.625737860161, 1.5, 0.0492466376194
2975, 0.694592710668, 1.5, 0.0607689879512
2976, 0.763235981506, 1.5, 0.0734912662093
2977, 0.831646763271, 1.5, 0.0874095970648
2978, 0.899804217375, 1.5, 0.102519740859
2979, 0.967687582399, 1.5, 0.118817094896
2980, 1.03527618041, 1.5, 0.136296694844
2981, 1.10254942327, 1.5, 0.154953216247
2982, 1.16948681889, 1.5, 0.174780976148
2983, 1.2360679775, 1.5, 0.195773934819
2984, 1.30227261783, 1.5, 0.217925697603
2985, 1.3680805733, 1.5, 0.241229516856
2986, 1.43347179818, 1.5, 0.265678294011
2987, 1.49842637366, 1.5, 0.291264581733
2988, 1.56292451396, 1.5, 0.31798058619
2989, 1.6269465723, 1.5, 0.34581816943
2990, 1.69047304696, 1.5, 0.374768851853
2991, 1.75348458716, 1.5, 0.404823814803
2992, 1.81596199896, 1.5, 0.435973903247
2993, 1.87788625114, 1.5, 0.468209628564
2994, 1.93923848099, 1.5, 0.501521171442
2995, 2, 1.5, 0.535898384862
2996, 2.06015229964, 1.5, 0.571330797192
2997, 2.11967705693, 1.5, 0.607807615374
2998, 2.17855614006, 1.5, 0.645317728218
2999, 2.23677161388, 1.5, 0.68384970978
3000, 2.2943057454, 1.5, 0.723391822844
3001, 2.35114100917, 1.5, 0.7639320225
3002, 2.40726009261, 1.5, 0.805457959811
3003, 2.4626459013, 1.5, 0.847956985573
3004, 2.5172815642, 1.5, 0.891416154172
3005, 2.57115043875, 1.5, 0.935822227524
3006, 2.62423611596, 1.5, 0.981161679109
3007, 2.67652242544, 1.5, 1.02742069809
3008, 2.72799344025, 1.5, 1.07458519352
3009, 2.77863348184, 1.5, 1.12264079865
3010, 2.82842712475, 1.5, 1.17157287525
3011, 2.87735920135, 1.5, 1.22136651816
3012, 2.92541480648, 1.5, 1.27200655975
3013, 2.97257930191, 1.5, 1.32347757456
3014, 3.01883832089, 1.5, 1.37576388404
3015, 3.06417777248, 1.5, 1.42884956125
3016, 3.10858384583, 1.5, 1.4827184358
3017, 3.15204301443, 1.5, 1.5373540987
3018, 3.19454204019, 1.5, 1.59273990739
3019, 3.2360679775, 1.5, 1.64885899083
3020, 3.27660817716, 1.5, 1.7056942546
3021, 3.31615029022, 1.5, 1.76322838612
3022, 3.35468227178, 1.5, 1.82144385994
3023, 3.39219238463, 1.5, 1.88032294307
3024, 3.42866920281, 1.5, 1.93984770036
3025, 3.46410161514, 1.5, 2
3026, 3.49847882856, 1.5, 2.06076151901
3027, 3.53179037144, 1.5, 2.12211374886
3028, 3.56402609675, 1.5, 2.18403800104
3029, 3.5951761852, 1.5, 2.24651541284
3030, 3.62523114815, 1.5, 2.30952695304
3031, 3.65418183057, 1.5, 2.3730534277
3032, 3.68201941381, 1.5, 2.43707548604
3033, 3.70873541827, 1.5, 2.50157362634
3034, 3.73432170599, 1.5, 2.56652820182
3035, 3.75877048314, 1.5, 2.6319194267
3036, 3.7820743024, 1.5, 2.69772738217
3037, 3.80422606518, 1.5, 2.7639320225
3038, 3.82521902385, 1.5, 2.83051318111
3039, 3.84504678375, 1.5, 2.89745057673
3040, 3.86370330516, 1.5, 2.96472381959
3041, 3.8811829051, 1.5, 3.0323124176
3042, 3.89748025914, 1.5, 3.10019578262
3043, 3.91259040294, 1.5, 3.16835323673
3044, 3.92650873379, 1.5, 3.23676401849
3045, 3.93923101205, 1.5, 3.30540728933
3046, 3.95075336238, 1.5, 3.37426213984
3047, 3.96107227497, 1.5, 3.44330759616
3048, 3.97018460657, 1.5, 3.51252262638
3049, 3.97808758147, 1.5, 3.58188614693
3050, 3.98477879237, 1.5, 3.65137702901
3051, 3.99025620104, 1.5, 3.72097410502
3052, 3.99451813902, 1.5, 3.79065617503
3053, 3.99756330808, 1.5, 3.86040201319
3054, 3.99939078063, 1.5, 3.93019037425
3055, 4, 1.5, 4
3056, 3.99939078063, 1.5, 4.06980962575
3057, 3.99756330808, 1.5, 4.13959798681
3058, 3.99451813902, 1.5, 4.20934382497
3059, 3.99025620104, 1.5, 4.27902589498
3060, 3.98477879237, 1.5, 4.34862297099
3061, 3.97808758147, 1.5, 4.41811385307
3062, 3.97018460657, 1.5, 4.48747737362
3063, 3.96107227497, 1.5, 4.55669240384
3064, 3.95075336238, 1.5, 4.62573786016
3065, 3.93923101205, 1.5, 4.69459271067
3066, -3.44682713554, -1, 4.60776862183
3067, -3.45690919208, -1, 4.54752062764
3068, -3.4659382406, -1, 4.48710585336
3069, -3.47391153074, -1, 4.42654270192
3070, -3.48082663379, -1, 4.36584962144
3071, -3.48668144332, -1, 4.30504509962
3072, -3.49147417591, -1, 4.2441476581
3073, -3.49520337164, -1, 4.18317584685
3074, -3.49786789457, -1, 4.12214823846
3075, -3.49946693305, -1, 4.06108342253
3076, -3.5, -1, 4
3077, -3.49946693305, -1, 3.93891657747
3078, -3.49786789457, -1, 3.87785176154
3079, -3.49520337164, -1, 3.81682415315
3080, -3.49147417591, -1, 3.7558523419
3081, -3.48668144332, -1, 3.69495490038
3082, -3.48082663379, -1, 3.63415037856
3083, -3.47391153074, -1, 3.57345729808
3084, -3.4659382406, -1, 3.51289414664
3085, -3.45690919208, -1, 3.45247937236
3086, -3.44682713554, -1, 3.39223137817
3087, -3.43569514207, -1, 3.33216851618
3088, -3.42351660257, -1, 3.27230908214
3089, -3.41029522675, -1, 3.2126713098
3090, -3.39603504197, -1, 3.1532733654
3091, -3.38074039201, -1, 3.09413334214
3092, -3.36441593578, -1, 3.03526925464
3093, -3.34706664587, -1, 2.97669903347
3094, -3.32869780703, -1, 2.91844051969
3095, -3.3093150146, -1, 2.8605114594
3096, -3.28892417275, -1, 2.80292949836
3097, -3.26753149274, -1, 2.74571217659
3098, -3.24514349098, -1, 2.68887692304
3099, -3.22176698708, -1, 2.63244105029
3100, -3.19740910175, -1, 2.57642174923
3101, -3.17207725463, -1, 2.52083608391
3102, -3.14577916205, -1, 2.46570098624
3103, -3.11852283466, -1, 2.41103325091
3104, -3.09031657501, -1, 2.35684953025
3105, -3.06116897499, -1, 2.30316632914
3106, -3.03108891325, -1, 2.25
3107, -3.00008555246, -1, 2.19736673781
3108, -2.96816833655, -1, 2.14528257518
3109, -2.93534698781, -1, 2.09376337745
3110, -2.90163150394, -1, 2.04282483785
3111, -2.86703215501, -1, 1.99248247277
3112, -2.83155948031, -1, 1.94275161698
3113, -2.79522428517, -1, 1.89364741897
3114, -2.75803763762, -1, 1.84518483636
3115, -2.7200108651, -1, 1.79737863133
3116, -2.68115555092, -1, 1.7502433661
3117, -2.64148353078, -1, 1.70379339853
3118, -2.60100688917, -1, 1.65804287774
3119, -2.55973795567, -1, 1.61300573978
3120, -2.51768930119, -1, 1.56869570339
3121, -2.47487373415, -1, 1.52512626585
3122, -2.43130429661, -1, 1.48231069881
3123, -2.38699426022, -1, 1.44026204433
3124, -2.34195712226, -1, 1.39899311083
3125, -2.29620660147, -1, 1.35851646922
3126, -2.2497566339, -1, 1.31884444908
3127, -2.20262136867, -1, 1.2799891349
3128, -2.15481516364, -1, 1.24196236238
3129, -2.10635258103, -1, 1.20477571483
3130, -2.05724838302, -1, 1.16844051969
3131, -2.00751752723, -1, 1.13296784499
3132, -1.95717516215, -1, 1.09836849606
3133, -1.90623662255, -1, 1.06465301219
3134, -1.85471742482, -1, 1.03183166345
3135, -1.80263326219, -1, 0.999914447543
3136, -1.75, -1, 0.968911086754
3137, -1.69683367086, -1, 0.938831025012
3138, -1.64315046975, -1, 0.909683424994
3139, -1.58896674909, -1, 0.881477165341
3140, -1.53429901376, -1, 0.854220837953
3141, -1.47916391609, -1, 0.827922745372
3142, -1.42357825077, -1, 0.802590898251
3143, -1.36755894971, -1, 0.778233012916
3144, -1.31112307696, -1, 0.754856509016
3145, -1.25428782341, -1, 0.73246850726
3146, -1.19707050164, -1, 0.711075827249
3147, -1.1394885406, -1, 0.690684985402
3148, -1.08155948031, -1, 0.671302192967
3149, -1.02330096653, -1, 0.652933354129
3150, -0.964730745359, -1, 0.635584064216
3151, -0.905866657859, -1, 0.619259607988
3152, -0.846726634599, -1, 0.603964958034
3153, -0.787328690204, -1, 0.589704773252
3154, -0.727690917862, -1, 0.576483397432
3155, -0.667831483818, -1, 0.564304857933
3156, -0.607768621834, -1, 0.553172864457
3157, -0.547520627641, -1, 0.543090807917
3158, -0.48710585336, -1, 0.534061759405
3159, -0.426542701918, -1, 0.526088469255
3160, -0.365849621437, -1, 0.519173366211
3161, -0.305045099617, -1, 0.513318556679
3162, -0.244147658104, -1, 0.508525824091
3163, -0.18317584685, -1, 0.504796628359
3164, -0.122148238459, -1, 0.502132105433
3165, -0.0610834225305, -1, 0.500533066953
3166, 0, -1, 0.5
3167, 0.0610834225305, -1, 0.500533066953
3168, 0.122148238459, -1, 0.502132105433
3169, 0.18317584685, -1, 0.504796628359
3170, 0.244147658104, -1, 0.508525824091
3171, 0.305045099617, -1, 0.513318556679
3172, 0.365849621437, -1, 0.519173366211
3173, 0.426542701918, -1, 0.526088469255
3174, 0.48710585336, -1, 0.534061759405
3175, 0.547520627641, -1, 0.543090807917
3176, 0.607768621834, -1, 0.553172864457
3177, 0.667831483818, -1, 0.564304857933
3178, 0.727690917862, -1, 0.576483397432
3179, 0.787328690204, -1, 0.589704773252
3180, 0.846726634599, -1, 0.603964958034
3181, 0.905866657859, -1, 0.619259607988
3182, 0.964730745359, -1, 0.635584064216
3183, 1.02330096653, -1, 0.652933354129
3184, 1.08155948031, -1, 0.671302192967
3185, 1.1394885406, -1, 0.690684985402
3186, 1.19707050164, -1, 0.711075827249
3187, 1.25428782341, -1, 0.73246850726
3188, 1.31112307696, -1, 0.754856509016
3189, 1.36755894971, -1, 0.778233012916
3190, 1.42357825077, -1, 0.802590898251
3191, 1.47916391609, -1, 0.827922745372
3192, 1.53429901376, -1, 0.854220837953
3193, 1.58896674909, -1, 0.881477165341
3194, 1.64315046975, -1, 0.909683424994
3195, 1.69683367086, -1, 0.938831025012
3196, 1.75, -1, 0.968911086754
3197, 1.80263326219, -1, 0.999914447543
3198, 1.85471742482, -1, 1.03183166345
3199, 1.90623662255, -1, 1.06465301219
3200, 1.95717516215, -1, 1.09836849606
3201, 2.00751752723, -1, 1.13296784499
3202, 2.05724838302, -1, 1.16844051969
3203, 2.10635258103, -1, 1.20477571483
3204, 2.15481516364, -1, 1.24196236238
3205, 2.20262136867, -1, 1.2799891349
3206, 2.2497566339, -1, 1.31884444908
3207, 2.29620660147, -1, 1.35851646922
3208, 2.34195712226, -1, 1.39899311083
3209, 2.38699426022, -1, 1.44026204433
3210, 2.43130429661, -1, 1.48231069881
3211, 2.47487373415, -1, 1.52512626585
3212, 2.51768930119, -1, 1.56869570339
3213, 2.55973795567, -1, 1.61300573978
3214, 2.60100688917, -1, 1.65804287774
3215, 2.64148353078, -1, 1.70379339853
3216, 2.68115555092, -1, 1.7502433661
3217, 2.7200108651, -1, 1.79737863133
3218, 2.75803763762, -1, 1.84518483636
3219, 2.79522428517, -1, 1.89364741897
3220, 2.83155948031, -1, 1.94275161698
3221, 2.86703215501, -1, 1.99248247277
3222, 2.90163150394, -1, 2.04282483785
3223, 2.93534698781, -1, 2.09376337745
3224, 2.96816833655, -1, 2.14528257518
3225, 3.00008555246, -1, 2.19736673781
3226, 3.03108891325, -1, 2.25
3227, 3.06116897499, -1, 2.30316632914
3228, 3.09031657501, -1, 2.35684953025
3229, 3.11852283466, -1, 2.41103325091
3230, 3.14577916205, -1, 2.46570098624
3231, 3.17207725463, -1, 2.52083608391
3232, 3.19740910175, -1, 2.57642174923
3233, 3.22176698708, -1, 2.63244105029
3234, 3.24514349098, -1, 2.68887692304
3235, 3.26753149274, -1, 2.74571217659
3236, 3.28892417275, -1, 2.80292949836
3237, 3.3093150146, -1, 2.8605114594
3238, 3.32869780703, -1, 2.91844051969
3239, 3.34706664587, -1, 2.97669903347
3240, 3.36441593578, -1, 3.03526925464
3241, 3.38074039201, -1, 3.09413334214
3242, 3.39603504197, -1, 3.1532733654
3243, 3.41029522675, -1, 3.2126713098
3244, 3.42351660257, -1, 3.27230908214
3245, 3.43569514207, -1, 3.33216851618
3246, 3.44682713554, -1, 3.39223137817
3247, 3.45690919208, -1, 3.45247937236
3248, 3.4659382406, -1, 3.51289414664
3249, 3.47391153074, -1, 3.57345729808
3250, 3.48082663379, -1, 3.63415037856
3251, 3.48668144332, -1, 3.69495490038
3252, 3.49147417591, -1, 3.7558523419
3253, 3.49520337164, -1, 3.81682415315
3254, 3.49786789457, -1, 3.87785176154
3255, 3.49946693305, -1, 3.93891657747
3256, 3.5, -1, 4
3257, 3.49946693305, -1, 4.06108342253
3258, 3.49786789457, -1, 4.12214823846
3259, 3.49520337164, -1, 4.18317584685
3260, 3.49147417591, -1, 4.2441476581
3261, 3.48668144332, -1, 4.30504509962
3262, 3.48082663379, -1, 4.36584962144
3263, 3.47391153074, -1, 4.42654270192
3264, 3.4659382406, -1, 4.48710585336
3265, 3.45690919208, -1, 4.54752062764
3266, 3.44682713554, -1, 4.60776862183
3267, -3.44682713554, 1.5, 4.60776862183
3268, -3.45690919208, 1.5, 4.54752062764
3269, -3.4659382406, 1.5, 4.48710585336
3270, -3.47391153074, 1.5, 4.42654270192
3271, -3.48082663379, 1.5, 4.36584962144
3272, -3.48668144332, 1.5, 4.30504509962
3273, -3.49147417591, 1.5, 4.2441476581
3274, -3.49520337164, 1.5, 4.18317584685
3275, -3.49786789457, 1.5, 4.12214823846
3276, -3.49946693305, 1.5, 4.06108342253
3277, -3.5, 1.5, 4
3278, -3.49946693305, 1.5, 3.93891657747
3279, -3.49786789457, 1.5, 3.87785176154
3280, -3.49520337164, 1.5, 3.81682415315
3281, -3.49147417591, 1.5, 3.7558523419
3282, -3.48668144332, 1.5, 3.69495490038
3283, -3.48082663379, 1.5, 3.63415037856
3284, -3.47391153074, 1.5, 3.57345729808
3285, -3.4659382406, 1.5, 3.51289414664
3286, -3.45690919208, 1.5, 3.45247937236
3287, -3.44682713554, 1.5, 3.39223137817
3288, -3.43569514207, 1.5, 3.33216851618
3289, -3.42351660257, 1.5, 3.27230908214
3290, -3.41029522675, 1.5, 3.2126713098
3291, -3.39603504197, 1.5, 3.1532733654
3292, -3.38074039201, 1.5, 3.09413334214
3293, -3.36441593578, 1.5, 3.03526925464
3294, -3.34706664587, 1.5, 2.97669903347
3295, -3.32869780703, 1.5, 2.91844051969
3296, -3.3093150146, 1.5, 2.8605114594
3297, -3.28892417275, 1.5, 2.80292949836
3298, -3.26753149274, 1.5, 2.74571217659
3299, -3.24514349098, 1.5, 2.68887692304
3300, -3.22176698708, 1.5, 2.63244105029
3301, -3.19740910175, 1.5, 2.57642174923
3302, -3.17207725463, 1.5, 2.52083608391
3303, -3.14577916205, 1.5, 2.46570098624
3304, -3.11852283466, 1.5, 2.41103325091
3305, -3.09031657501, 1.5, 2.35684953025
3306, -3.06116897499, 1.5, 2.30316632914
3307, -3.03108891325, 1.5, 2.25
3308, -3.00008555246, 1.5, 2.19736673781
3309, -2.96816833655, 1.5, 2.14528257518
3310, -2.93534698781, 1.5, 2.09376337745
3311, -2.90163150394, 1.5, 2.04282483785
3312, -2.86703215501, 1.5, 1.99248247277
3313, -2.83155948031, 1.5, 1.94275161698
3314, -2.79522428517, 1.5, 1.89364741897
3315, -2.75803763762, 1.5, 1.84518483636
3316, -2.7200108651, 1.5, 1.79737863133
3317, -2.68115555092, 1.5, 1.7502433661
3318, -2.64148353078, 1.5, 1.70379339853
3319, -2.60100688917, 1.5, 1.65804287774
3320, -2.55973795567, 1.5, 1.61300573978
3321, -2.51768930119, 1.5, 1.56869570339
3322, -2.47487373415, 1.5, 1.52512626585
3323, -2.43130429661, 1.5, 1.48231069881
3324, -2.38699426022, 1.5, 1.44026204433
3325, -2.34195712226, 1.5, 1.39899311083
3326, -2.29620660147, 1.5, 1.35851646922
3327, -2.2497566339, 1.5, 1.31884444908
3328, -2.20262136867, 1.5, 1.2799891349
3329, -2.15481516364, 1.5, 1.24196236238
3330, -2.10635258103, 1.5, 1.20477571483
3331, -2.05724838302, 1.5, 1.16844051969
3332, -2.00751752723, 1.5, 1.13296784499
3333, -1.95717516215, 1.5, 1.09836849606
3334, -1.90623662255, 1.5, 1.06465301219
3335, -1.85471742482, 1.5, 1.03183166345
3336, -1.80263326219, 1.5, 0.999914447543
3337, -1.75, 1.5, 0.968911086754
3338, -1.69683367086, 1.5, 0.938831025012
3339, -1.64315046975, 1.5, 0.909683424994
3340, -1.58896674909, 1.5, 0.881477165341
3341, -1.53429901376, 1.5, 0.854220837953
3342, -1.47916391609, 1.5, 0.827922745372
3343, -1.42357825077, 1.5, 0.802590898251
3344, -1.36755894971, 1.5, 0.778233012916
3345, -1.31112307696, 1.5, 0.754856509016
3346, -1.25428782341, 1.5, 0.73246850726
3347, -1.19707050164, 1.5, 0.711075827249
3348, -1.1394885406, 1.5, 0.690684985402
3349, -1.08155948031, 1.5, 0.671302192967
3350, -1.02330096653, 1.5, 0.652933354129
3351, -0.964730745359, 1.5, 0.635584064216
3352, -0.905866657859, 1.5, 0.619259607988
3353, -0.846726634599, 1.5, 0.603964958034
3354, -0.787328690204, 1.5, 0.589704773252
3355, -0.727690917862, 1.5, 0.576483397432
3356, -0.667831483818, 1.5, 0.564304857933
3357, -0.607768621834, 1.5, 0.553172864457
3358, -0.547520627641, 1.5, 0.543090807917
3359, -0.48710585336, 1.5, 0.534061759405
3360, -0.426542701918, 1.5, 0.526088469255
3361, -0.365849621437, 1.5, 0.519173366211
3362, -0.305045099617, 1.5, 0.513318556679
3363, -0.244147658104, 1.5, 0.508525824091
3364, -0.18317584685, 1.5, 0.504796628359
3365, -0.122148238459, 1.5, 0.502132105433
3366, -0.0610834225305, 1.5, 0.500533066953
3367, 0, 1.5, 0.5
3368, 0.0610834225305, 1.5, 0.500533066953
3369, 0.122148238459, 1.5, 0.502132105433
3370, 0.18317584685, 1.5, 0.504796628359
3371, 0.244147658104, 1.5, 0.508525824091
3372, 0.305045099617, 1.5, 0.513318556679
3373, 0.365849621437, 1.5, 0.519173366211
3374, 0.426542701918, 1.5, 0.526088469255
3375, 0.48710585336, 1.5, 0.534061759405
3376, 0.547520627641, 1.5, 0.543090807917
3377, 0.607768621834, 1.5, 0.553172864457
3378, 0.667831483818, 1.5, 0.564304857933
3379, 0.727690917862, 1.5, 0.576483397432
3380, 0.787328690204, 1.5, 0.589704773252
3381, 0.846726634599, 1.5, 0.603964958034
3382, 0.905866657859, 1.5, 0.619259607988
3383, 0.964730745359, 1.5, 0.635584064216
3384, 1.02330096653, 1.5, 0.652933354129
3385, 1.08155948031, 1.5, 0.671302192967
3386, 1.1394885406, 1.5, 0.690684985402
3387, 1.19707050164, 1.5, 0.711075827249
3388, 1.25428782341, 1.5, 0.73246850726
3389, 1.31112307696, 1.5, 0.754856509016
3390, 1.36755894971, 1.5, 0.778233012916
3391, 1.42357825077, 1.5, 0.802590898251
3392, 1.47916391609, 1.5, 0.827922745372
3393, 1.53429901376, 1.5, 0.854220837953
3394, 1.58896674909, 1.5, 0.881477165341
3395, 1.64315046975, 1.5, 0.909683424994
3396, 1.69683367086, 1.5, 0.938831025012
3397, 1.75, 1.5, 0.968911086754
3398, 1.80263326219, 1.5, 0.999914447543
3399, 1.85471742482, 1.5, 1.03183166345
3400, 1.90623662255, 1.5, 1.06465301219
3401, 1.95717516215, 1.5, 1.09836849606
3402, 2.00751752723, 1.5, 1.13296784499
3403, 2.05724838302, 1.5, 1.16844051969
3404, 2.10635258103, 1.5, 1.20477571483
3405, 2.15481516364, 1.5, 1.24196236238
3406, 2.20262136867, 1.5, 1.2799891349
3407, 2.2497566339, 1.5, 1.31884444908
3408, 2.29620660147, 1.5, 1.35851646922
3409, 2.34195712226, 1.5, 1.39899311083
3410, 2.38699426022, 1.5, 1.44026204433
3411, 2.43130429661, 1.5, 1.48231069881
3412, 2.47487373415, 1.5, 1.52512626585
3413, 2.51768930119, 1.5, 1.56869570339
3414, 2.55973795567, 1.5, 1.61300573978
3415, 2.60100688917, 1.5, 1.65804287774
3416, 2.64148353078, 1.5, 1.70379339853
3417, 2.68115555092, 1.5, 1.7502433661
3418, 2.7200108651, 1.5, 1.79737863133
3419, 2.75803763762, 1.5, 1.84518483636
3420, 2.79522428517, 1.5, 1.89364741897
3421, 2.83155948031, 1.5, 1.94275161698
3422, 2.86703215501, 1.5, 1.99248247277
3423, 2.90163150394, 1.5, 2.04282483785
3424, 2.93534698781, 1.5, 2.09376337745
3425, 2.96816833655, 1.5, 2.14528257518
3426, 3.00008555246, 1.5, 2.19736673781
3427, 3.03108891325, 1.5, 2.25
3428, 3.06116897499, 1.5, 2.30316632914
3429, 3.09031657501, 1.5, 2.35684953025
3430, 3.11852283466, 1.5, 2.41103325091
3431, 3.14577916205, 1.5, 2.46570098624
3432, 3.17207725463, 1.5, 2.52083608391
3433, 3.19740910175, 1.5, 2.57642174923
3434, 3.22176698708, 1.5, 2.63244105029
3435, 3.24514349098, 1.5, 2.68887692304
3436, 3.26753149274, 1.5, 2.74571217659
3437, 3.28892417275, 1.5, 2.80292949836
3438, 3.3093150146, 1.5, 2.8605114594
3439, 3.32869780703, 1.5, 2.91844051969
3440, 3.34706664587, 1.5, 2.97669903347
3441, 3.36441593578, 1.5, 3.03526925464
3442, 3.38074039201, 1.5, 3.09413334214
3443, 3.39603504197, 1.5, 3.1532733654
3444, 3.41029522675, 1.5, 3.2126713098
3445, 3.42351660257, 1.5, 3.27230908214
3446, 3.43569514207, 1.5, 3.33216851618
3447, 3.44682713554, 1.5, 3.39223137817
3448, 3.45690919208, 1.5, 3.45247937236
3449, 3.4659382406, 1.5, 3.51289414664
3450, 3.47391153074, 1.5, 3.57345729808
3451, 3.48082663379, 1.5, 3.63415037856
3452, 3.48668144332, 1.5, 3.69495490038
3453, 3.49147417591, 1.5, 3.7558523419
3454, 3.49520337164, 1.5, 3.81682415315
3455, 3.49786789457, 1.5, 3.87785176154
3456, 3.49946693305, 1.5, 3.93891657747
3457, 3.5, 1.5, 4
3458, 3.49946693305, 1.5, 4.06108342253
3459, 3.49786789457, 1.5, 4.12214823846
3460, 3.49520337164, 1.5, 4.18317584685
3461, 3.49147417591, 1.5, 4.2441476581
3462, 3.48668144332, 1.5, 4.30504509962
3463, 3.48082663379, 1.5, 4.36584962144
3464, 3.47391153074, 1.5, 4.42654270192
3465, 3.4659382406, 1.5, 4.48710585336
3466, 3.45690919208, 1.5, 4.54752062764
3467, 3.44682713554, 1.5, 4.60776862183
*ELEMENT, TYPE=C3D20R, ELSET=SHEET
1, 1, 2, 3, 4, 5, 6, 7, 8, 9, 10, 11, 12, 13, 14, 15,
16, 17, 18, 19, 20
2, 2, 21, 22, 3, 6, 23, 24, 7, 25, 26, 27, 10, 28, 29, 30,
14, 18, 31, 32, 19
3, 21, 33, 34, 22, 23, 35, 36, 24, 37, 38, 39, 26, 40, 41, 42,
29, 31, 43, 44, 32
4, 33, 45, 46, 34, 35, 47, 48, 36, 49, 50, 51, 38, 52, 53, 54,
41, 43, 55, 56, 44
5, 45, 57, 58, 46, 47, 59, 60, 48, 61, 62, 63, 50, 64, 65, 66,
53, 55, 67, 68, 56
6, 57, 69, 70, 58, 59, 71, 72, 60, 73, 74, 75, 62, 76, 77, 78,
65, 67, 79, 80, 68
7, 69, 81, 82, 70, 71, 83, 84, 72, 85, 86, 87, 74, 88, 89, 90,
77, 79, 91, 92, 80
8, 81, 93, 94, 82, 83, 95, 96, 84, 97, 98, 99, 86, 100, 101, 102,
89, 91, 103, 104, 92
9, 93, 105, 106, 94, 95, 107, 108, 96, 109, 110, 111, 98, 112, 113, 114,
101, 103, 115, 116, 104
10, 105, 117, 118, 106, 107, 119, 120, 108, 121, 122, 123, 110, 124, 125, 126,
113, 115, 127, 128, 116
11, 117, 129, 130, 118, 119, 131, 132, 120, 133, 134, 135, 122, 136, 137, 138,
125, 127, 139, 140, 128
12, 129, 141, 142, 130, 131, 143, 144, 132, 145, 146, 147, 134, 148, 149, 150,
137, 139, 151, 152, 140
13, 141, 153, 154, 142, 143, 155, 156, 144, 157, 158, 159, 146, 160, 161, 162,
149, 151, 163, 164, 152
14, 153, 165, 166, 154, 155, 167, 168, 156, 169, 170, 171, 158, 172, 173, 174,
161, 163, 175, 176, 164
15, 165, 177, 178, 166, 167, 179, 180, 168, 181, 182, 183, 170, 184, 185, 186,
173, 175, 187, 188, 176
16, 177, 189, 190, 178, 179, 191, 192, 180, 193, 194, 195, 182, 196, 197, 198,
185, 187, 199, 200, 188
17, 189, 201, 202, 190, 191, 203, 204, 192, 205, 206, 207, 194, 208, 209, 210,
197, 199, 211, 212, 200
18, 201, 213, 214, 202, 203, 215, 216, 204, 217, 218, 219, 206, 220, 221, 222,
209, 211, 223, 224, 212
19, 213, 225, 226, 214, 215, 227, 228, 216, 229, 230, 231, 218, 232, 233, 234,
221, 223, 235, 236, 224
20, 225, 237, 238, 226, 227, 239, 240, 228, 241, 242, 243, 230, 244, 245, 246,
233, 235, 247, 248, 236
21, 237, 249, 250, 238, 239, 251, 252, 240, 253, 254, 255, 242, 256, 257, 258,
245, 247, 259, 260, 248
22, 249, 261, 262, 250, 251, 263, 264, 252, 265, 266, 267, 254, 268, 269, 270,
257, 259, 271, 272, 260
23, 261, 273, 274, 262, 263, 275, 276, 264, 277, 278, 279, 266, 280, 281, 282,
269, 271, 283, 284, 272
24, 273, 285, 286, 274, 275, 287, 288, 276, 289, 290, 291, 278, 292, 293, 294,
281, 283, 295, 296, 284
25, 285, 297, 298, 286, 287, 299, 300, 288, 301, 302, 303, 290, 304, 305, 306,
293, 295, 307, 308, 296
26, 297, 309, 310, 298, 299, 311, 312, 300, 313, 314, 315, 302, 316, 317, 318,
305, 307, 319, 320, 308
27, 309, 321, 322, 310, 311, 323, 324, 312, 325, 326, 327, 314, 328, 329, 330,
317, 319, 331, 332, 320
28, 321, 333, 334, 322, 323, 335, 336, 324, 337, 338, 339, 326, 340, 341, 342,
329, 331, 343, 344, 332
29, 333, 345, 346, 334, 335, 347, 348, 336, 349, 350, 351, 338, 352, 353, 354,
341, 343, 355, 356, 344
30, 345, 357, 358, 346, 347, 359, 360, 348, 361, 362, 363, 350, 364, 365, 366,
353, 355, 367, 368, 356
31, 357, 369, 370, 358, 359, 371, 372, 360, 373, 374, 375, 362, 376, 377, 378,
365, 367, 379, 380, 368
32, 369, 381, 382, 370, 371, 383, 384, 372, 385, 386, 387, 374, 388, 389, 390,
377, 379, 391, 392, 380
33, 381, 393, 394, 382, 383, 395, 396, 384, 397, 398, 399, 386, 400, 401, 402,
389, 391, 403, 404, 392
34, 393, 405, 406, 394, 395, 407, 408, 396, 409, 410, 411, 398, 412, 413, 414,
401, 403, 415, 416, 404
35, 405, 417, 418, 406, 407, 419, 420, 408, 421, 422, 423, 410, 424, 425, 426,
413, 415, 427, 428, 416
36, 417, 429, 430, 418, 419, 431, 432, 420, 433, 434, 435, 422, 436, 437, 438,
425, 427, 439, 440, 428
37, 429, 441, 442, 430, 431, 443, 444, 432, 445, 446, 447, 434, 448, 449, 450,
437, 439, 451, 452, 440
38, 441, 453, 454, 442, 443, 455, 456, 444, 457, 458, 459, 446, 460, 461, 462,
449, 451, 463, 464, 452
39, 453, 465, 466, 454, 455, 467, 468, 456, 469, 470, 471, 458, 472, 473, 474,
461, 463, 475, 476, 464
40, 465, 477, 478, 466, 467, 479, 480, 468, 481, 482, 483, 470, 484, 485, 486,
473, 475, 487, 488, 476
41, 477, 489, 490, 478, 479, 491, 492, 480, 493, 494, 495, 482, 496, 497, 498,
485, 487, 499, 500, 488
42, 489, 501, 502, 490, 491, 503, 504, 492, 505, 506, 507, 494, 508, 509, 510,
497, 499, 511, 512, 500
43, 501, 513, 514, 502, 503, 515, 516, 504, 517, 518, 519, 506, 520, 521, 522,
509, 511, 523, 524, 512
44, 513, 525, 526, 514, 515, 527, 528, 516, 529, 530, 531, 518, 532, 533, 534,
521, 523, 535, 536, 524
45, 525, 537, 538, 526, 527, 539, 540, 528, 541, 542, 543, 530, 544, 545, 546,
533, 535, 547, 548, 536
46, 537, 549, 550, 538, 539, 551, 552, 540, 553, 554, 555, 542, 556, 557, 558,
545, 547, 559, 560, 548
47, 549, 561, 562, 550, 551, 563, 564, 552, 565, 566, 567, 554, 568, 569, 570,
557, 559, 571, 572, 560
48, 561, 573, 574, 562, 563, 575, 576, 564, 577, 578, 579, 566, 580, 581, 582,
569, 571, 583, 584, 572
49, 573, 585, 586, 574, 575, 587, 588, 576, 589, 590, 591, 578, 592, 593, 594,
581, 583, 595, 596, 584
50, 585, 597, 598, 586, 587, 599, 600, 588, 601, 602, 603, 590, 604, 605, 606,
593, 595, 607, 608, 596
51, 597, 609, 610, 598, 599, 611, 612, 600, 613, 614, 615, 602, 616, 617, 618,
605, 607, 619, 620, 608
52, 609, 621, 622, 610, 611, 623, 624, 612, 625, 626, 627, 614, 628, 629, 630,
617, 619, 631, 632, 620
53, 621, 633, 634, 622, 623, 635, 636, 624, 637, 638, 639, 626, 640, 641, 642,
629, 631, 643, 644, 632
54, 633, 645, 646, 634, 635, 647, 648, 636, 649, 650, 651, 638, 652, 653, 654,
641, 643, 655, 656, 644
55, 645, 657, 658, 646, 647, 659, 660, 648, 661, 662, 663, 650, 664, 665, 666,
653, 655, 667, 668, 656
56, 657, 669, 670, 658, 659, 671, 672, 660, 673, 674, 675, 662, 676, 677, 678,
665, 667, 679, 680, 668
57, 669, 681, 682, 670, 671, 683, 684, 672, 685, 686, 687, 674, 688, 689, 690,
677, 679, 691, 692, 680
58, 681, 693, 694, 682, 683, 695, 696, 684, 697, 698, 699, 686, 700, 701, 702,
689, 691, 703, 704, 692
59, 693, 705, 706, 694, 695, 707, 708, 696, 709, 710, 711, 698, 712, 713, 714,
701, 703, 715, 716, 704
60, 705, 717, 718, 706, 707, 719, 720, 708, 721, 722, 723, 710, 724, 725, 726,
713, 715, 727, 728, 716
61, 717, 729, 730, 718, 719, 731, 732, 720, 733, 734, 735, 722, 736, 737, 738,
725, 727, 739, 740, 728
62, 729, 741, 742, 730, 731, 743, 744, 732, 745, 746, 747, 734, 748, 749, 750,
737, 739, 751, 752, 740
63, 741, 753, 754, 742, 743, 755, 756, 744, 757, 758, 759, 746, 760, 761, 762,
749, 751, 763, 764, 752
64, 753, 765, 766, 754, 755, 767, 768, 756, 769, 770, 771, 758, 772, 773, 774,
761, 763, 775, 776, 764
65, 765, 777, 778, 766, 767, 779, 780, 768, 781, 782, 783, 770, 784, 785, 786,
773, 775, 787, 788, 776
66, 777, 789, 790, 778, 779, 791, 792, 780, 793, 794, 795, 782, 796, 797, 798,
785, 787, 799, 800, 788
67, 789, 801, 802, 790, 791, 803, 804, 792, 805, 806, 807, 794, 808, 809, 810,
797, 799, 811, 812, 800
68, 801, 813, 814, 802, 803, 815, 816, 804, 817, 818, 819, 806, 820, 821, 822,
809, 811, 823, 824, 812
69, 813, 825, 826, 814, 815, 827, 828, 816, 829, 830, 831, 818, 832, 833, 834,
821, 823, 835, 836, 824
70, 825, 837, 838, 826, 827, 839, 840, 828, 841, 842, 843, 830, 844, 845, 846,
833, 835, 847, 848, 836
71, 837, 849, 850, 838, 839, 851, 852, 840, 853, 854, 855, 842, 856, 857, 858,
845, 847, 859, 860, 848
72, 849, 861, 862, 850, 851, 863, 864, 852, 865, 866, 867, 854, 868, 869, 870,
857, 859, 871, 872, 860
73, 861, 873, 874, 862, 863, 875, 876, 864, 877, 878, 879, 866, 880, 881, 882,
869, 871, 883, 884, 872
74, 873, 885, 886, 874, 875, 887, 888, 876, 889, 890, 891, 878, 892, 893, 894,
881, 883, 895, 896, 884
75, 885, 897, 898, 886, 887, 899, 900, 888, 901, 902, 903, 890, 904, 905, 906,
893, 895, 907, 908, 896
76, 897, 909, 910, 898, 899, 911, 912, 900, 913, 914, 915, 902, 916, 917, 918,
905, 907, 919, 920, 908
77, 909, 921, 922, 910, 911, 923, 924, 912, 925, 926, 927, 914, 928, 929, 930,
917, 919, 931, 932, 920
78, 921, 933, 934, 922, 923, 935, 936, 924, 937, 938, 939, 926, 940, 941, 942,
929, 931, 943, 944, 932
79, 933, 945, 946, 934, 935, 947, 948, 936, 949, 950, 951, 938, 952, 953, 954,
941, 943, 955, 956, 944
80, 945, 957, 958, 946, 947, 959, 960, 948, 961, 962, 963, 950, 964, 965, 966,
953, 955, 967, 968, 956
81, 5, 6, 7, 8, 969, 970, 971, 972, 13, 14, 15, 16, 973, 974, 975,
976, 977, 978, 979, 980
82, 6, 23, 24, 7, 970, 981, 982, 971, 28, 29, 30, 14, 983, 984, 985,
974, 978, 986, 987, 979
83, 23, 35, 36, 24, 981, 988, 989, 982, 40, 41, 42, 29, 990, 991, 992,
984, 986, 993, 994, 987
84, 35, 47, 48, 36, 988, 995, 996, 989, 52, 53, 54, 41, 997, 998, 999,
991, 993, 1000, 1001, 994
85, 47, 59, 60, 48, 995, 1002, 1003, 996, 64, 65, 66, 53, 1004, 1005, 1006,
998, 1000, 1007, 1008, 1001
86, 59, 71, 72, 60, 1002, 1009, 1010, 1003, 76, 77, 78, 65, 1011, 1012, 1013,
1005, 1007, 1014, 1015, 1008
87, 71, 83, 84, 72, 1009, 1016, 1017, 1010, 88, 89, 90, 77, 1018, 1019, 1020,
1012, 1014, 1021, 1022, 1015
88, 83, 95, 96, 84, 1016, 1023, 1024, 1017, 100, 101, 102, 89, 1025, 1026, 1027,
1019, 1021, 1028, 1029, 1022
89, 95, 107, 108, 96, 1023, 1030, 1031, 1024, 112, 113, 114, 101, 1032, 1033, 1034,
1026, 1028, 1035, 1036, 1029
90, 107, 119, 120, 108, 1030, 1037, 1038, 1031, 124, 125, 126, 113, 1039, 1040, 1041,
1033, 1035, 1042, 1043, 1036
91, 119, 131, 132, 120, 1037, 1044, 1045, 1038, 136, 137, 138, 125, 1046, 1047, 1048,
1040, 1042, 1049, 1050, 1043
92, 131, 143, 144, 132, 1044, 1051, 1052, 1045, 148, 149, 150, 137, 1053, 1054, 1055,
1047, 1049, 1056, 1057, 1050
93, 143, 155, 156, 144, 1051, 1058, 1059, 1052, 160, 161, 162, 149, 1060, 1061, 1062,
1054, 1056, 1063, 1064, 1057
94, 155, 167, 168, 156, 1058, 1065, 1066, 1059, 172, 173, 174, 161, 1067, 1068, 1069,
1061, 1063, 1070, 1071, 1064
95, 167, 179, 180, 168, 1065, 1072, 1073, 1066, 184, 185, 186, 173, 1074, 1075, 1076,
1068, 1070, 1077, 1078, 1071
96, 179, 191, 192, 180, 1072, 1079, 1080, 1073, 196, 197, 198, 185, 1081, 1082, 1083,
1075, 1077, 1084, 1085, 1078
97, 191, 203, 204, 192, 1079, 1086, 1087, 1080, 208, 209, 210, 197, 1088, 1089, 1090,
1082, 1084, 1091, 1092, 1085
98, 203, 215, 216, 204, 1086, 1093, 1094, 1087, 220, 221, 222, 209, 1095, 1096, 1097,
1089, 1091, 1098, 1099, 1092
99, 215, 227, 228, 216, 1093, 1100, 1101, 1094, 232, 233, 234, 221, 1102, 1103, 1104,
1096, 1098, 1105, 1106, 1099
100, 227, 239, 240, 228, 1100, 1107, 1108, 1101, 244, 245, 246, 233, 1109, 1110, 1111,
1103, 1105, 1112, 1113, 1106
101, 239, 251, 252, 240, 1107, 1114, 1115, 1108, 256, 257, 258, 245, 1116, 1117, 1118,
1110, 1112, 1119, 1120, 1113
102, 251, 263, 264, 252, 1114, 1121, 1122, 1115, 268, 269, 270, 257, 1123, 1124, 1125,
1117, 1119, 1126, 1127, 1120
103, 263, 275, 276, 264, 1121, 1128, 1129, 1122, 280, 281, 282, 269, 1130, 1131, 1132,
1124, 1126, 1133, 1134, 1127
104, 275, 287, 288, 276, 1128, 1135, 1136, 1129, 292, 293, 294, 281, 1137, 1138, 1139,
1131, 1133, 1140, 1141, 1134
105, 287, 299, 300, 288, 1135, 1142, 1143, 1136, 304, 305, 306, 293, 1144, 1145, 1146,
1138, 1140, 1147, 1148, 1141
106, 299, 311, 312, 300, 1142, 1149, 1150, 1143, 316, 317, 318, 305, 1151, 1152, 1153,
1145, 1147, 1154, 1155, 1148
107, 311, 323, 324, 312, 1149, 1156, 1157, 1150, 328, 329, 330, 317, 1158, 1159, 1160,
1152, 1154, 1161, 1162, 1155
108, 323, 335, 336, 324, 1156, 1163, 1164, 1157, 340, 341, 342, 329, 1165, 1166, 1167,
1159, 1161, 1168, 1169, 1162
109, 335, 347, 348, 336, 1163, 1170, 1171, 1164, 352, 353, 354, 341, 1172, 1173, 1174,
1166, 1168, 1175, 1176, 1169
110, 347, 359, 360, 348, 1170, 1177, 1178, 1171, 364, 365, 366, 353, 1179, 1180, 1181,
1173, 1175, 1182, 1183, 1176
111, 359, 371, 372, 360, 1177, 1184, 1185, 1178, 376, 377, 378, 365, 1186, 1187, 1188,
1180, 1182, 1189, 1190, 1183
112, 371, 383, 384, 372, 1184, 1191, 1192, 1185, 388, 389, 390, 377, 1193, 1194, 1195,
1187, 1189, 1196, 1197, 1190
113, 383, 395, 396, 384, 1191, 1198, 1199, 1192, 400, 401, 402, 389, 1200, 1201, 1202,
1194, 1196, 1203, 1204, 1197
114, 395, 407, 408, 396, 1198, 1205, 1206, 1199, 412, 413, 414, 401, 1207, 1208, 1209,
1201, 1203, 1210, 1211, 1204
115, 407, 419, 420, 408, 1205, 1212, 1213, 1206, 424, 425, 426, 413, 1214, 1215, 1216,
1208, 1210, 1217, 1218, 1211
116, 419, 431, 432, 420, 1212, 1219, 1220, 1213, 436, 437, 438, 425, 1221, 1222, 1223,
1215, 1217, 1224, 1225, 1218
117, 431, 443, 444, 432, 1219, 1226, 1227, 1220, 448, 449, 450, 437, 1228, 1229, 1230,
1222, 1224, 1231, 1232, 1225
118, 443, 455, 456, 444, 1226, 1233, 1234, 1227, 460, 461, 462, 449, 1235, 1236, 1237,
1229, 1231, 1238, 1239, 1232
119, 455, 467, 468, 456, 1233, 1240, 1241, 1234, 472, 473, 474, 461, 1242, 1243, 1244,
1236, 1238, 1245, 1246, 1239
120, 467, 479, 480, 468, 1240, 1247, 1248, 1241, 484, 485, 486, 473, 1249, 1250, 1251,
1243, 1245, 1252, 1253, 1246
121, 479, 491, 492, 480, 1247, 1254, 1255, 1248, 496, 497, 498, 485, 1256, 1257, 1258,
1250, 1252, 1259, 1260, 1253
122, 491, 503, 504, 492, 1254, 1261, 1262, 1255, 508, 509, 510, 497, 1263, 1264, 1265,
1257, 1259, 1266, 1267, 1260
123, 503, 515, 516, 504, 1261, 1268, 1269, 1262, 520, 521, 522, 509, 1270, 1271, 1272,
1264, 1266, 1273, 1274, 1267
124, 515, 527, 528, 516, 1268, 1275, 1276, 1269, 532, 533, 534, 521, 1277, 1278, 1279,
1271, 1273, 1280, 1281, 1274
125, 527, 539, 540, 528, 1275, 1282, 1283, 1276, 544, 545, 546, 533, 1284, 1285, 1286,
1278, 1280, 1287, 1288, 1281
126, 539, 551, 552, 540, 1282, 1289, 1290, 1283, 556, 557, 558, 545, 1291, 1292, 1293,
1285, 1287, 1294, 1295, 1288
127, 551, 563, 564, 552, 1289, 1296, 1297, 1290, 568, 569, 570, 557, 1298, 1299, 1300,
1292, 1294, 1301, 1302, 1295
128, 563, 575, 576, 564, 1296, 1303, 1304, 1297, 580, 581, 582, 569, 1305, 1306, 1307,
1299, 1301, 1308, 1309, 1302
129, 575, 587, 588, 576, 1303, 1310, 1311, 1304, 592, 593, 594, 581, 1312, 1313, 1314,
1306, 1308, 1315, 1316, 1309
130, 587, 599, 600, 588, 1310, 1317, 1318, 1311, 604, 605, 606, 593, 1319, 1320, 1321,
1313, 1315, 1322, 1323, 1316
131, 599, 611, 612, 600, 1317, 1324, 1325, 1318, 616, 617, 618, 605, 1326, 1327, 1328,
1320, 1322, 1329, 1330, 1323
132, 611, 623, 624, 612, 1324, 1331, 1332, 1325, 628, 629, 630, 617, 1333, 1334, 1335,
1327, 1329, 1336, 1337, 1330
133, 623, 635, 636, 624, 1331, 1338, 1339, 1332, 640, 641, 642, 629, 1340, 1341, 1342,
1334, 1336, 1343, 1344, 1337
134, 635, 647, 648, 636, 1338, 1345, 1346, 1339, 652, 653, 654, 641, 1347, 1348, 1349,
1341, 1343, 1350, 1351, 1344
135, 647, 659, 660, 648, 1345, 1352, 1353, 1346, 664, 665, 666, 653, 1354, 1355, 1356,
1348, 1350, 1357, 1358, 1351
136, 659, 671, 672, 660, 1352, 1359, 1360, 1353, 676, 677, 678, 665, 1361, 1362, 1363,
1355, 1357, 1364, 1365, 1358
137, 671, 683, 684, 672, 1359, 1366, 1367, 1360, 688, 689, 690, 677, 1368, 1369, 1370,
1362, 1364, 1371, 1372, 1365
138, 683, 695, 696, 684, 1366, 1373, 1374, 1367, 700, 701, 702, 689, 1375, 1376, 1377,
1369, 1371, 1378, 1379, 1372
139, 695, 707, 708, 696, 1373, 1380, 1381, 1374, 712, 713, 714, 701, 1382, 1383, 1384,
1376, 1378, 1385, 1386, 1379
140, 707, 719, 720, 708, 1380, 1387, 1388, 1381, 724, 725, 726, 713, 1389, 1390, 1391,
1383, 1385, 1392, 1393, 1386
141, 719, 731, 732, 720, 1387, 1394, 1395, 1388, 736, 737, 738, 725, 1396, 1397, 1398,
1390, 1392, 1399, 1400, 1393
142, 731, 743, 744, 732, 1394, 1401, 1402, 1395, 748, 749, 750, 737, 1403, 1404, 1405,
1397, 1399, 1406, 1407, 1400
143, 743, 755, 756, 744, 1401, 1408, 1409, 1402, 760, 761, 762, 749, 1410, 1411, 1412,
1404, 1406, 1413, 1414, 1407
144, 755, 767, 768, 756, 1408, 1415, 1416, 1409, 772, 773, 774, 761, 1417, 1418, 1419,
1411, 1413, 1420, 1421, 1414
145, 767, 779, 780, 768, 1415, 1422, 1423, 1416, 784, 785, 786, 773, 1424, 1425, 1426,
1418, 1420, 1427, 1428, 1421
146, 779, 791, 792, 780, 1422, 1429, 1430, 1423, 796, 797, 798, 785, 1431, 1432, 1433,
1425, 1427, 1434, 1435, 1428
147, 791, 803, 804, 792, 1429, 1436, 1437, 1430, 808, 809, 810, 797, 1438, 1439, 1440,
1432, 1434, 1441, 1442, 1435
148, 803, 815, 816, 804, 1436, 1443, 1444, 1437, 820, 821, 822, 809, 1445, 1446, 1447,
1439, 1441, 1448, 1449, 1442
149, 815, 827, 828, 816, 1443, 1450, 1451, 1444, 832, 833, 834, 821, 1452, 1453, 1454,
1446, 1448, 1455, 1456, 1449
150, 827, 839, 840, 828, 1450, 1457, 1458, 1451, 844, 845, 846, 833, 1459, 1460, 1461,
1453, 1455, 1462, 1463, 1456
151, 839, 851, 852, 840, 1457, 1464, 1465, 1458, 856, 857, 858, 845, 1466, 1467, 1468,
1460, 1462, 1469, 1470, 1463
152, 851, 863, 864, 852, 1464, 1471, 1472, 1465, 868, 869, 870, 857, 1473, 1474, 1475,
1467, 1469, 1476, 1477, 1470
153, 863, 875, 876, 864, 1471, 1478, 1479, 1472, 880, 881, 882, 869, 1480, 1481, 1482,
1474, 1476, 1483, 1484, 1477
154, 875, 887, 888, 876, 1478, 1485, 1486, 1479, 892, 893, 894, 881, 1487, 1488, 1489,
1481, 1483, 1490, 1491, 1484
155, 887, 899, 900, 888, 1485, 1492, 1493, 1486, 904, 905, 906, 893, 1494, 1495, 1496,
1488, 1490, 1497, 1498, 1491
156, 899, 911, 912, 900, 1492, 1499, 1500, 1493, 916, 917, 918, 905, 1501, 1502, 1503,
1495, 1497, 1504, 1505, 1498
157, 911, 923, 924, 912, 1499, 1506, 1507, 1500, 928, 929, 930, 917, 1508, 1509, 1510,
1502, 1504, 1511, 1512, 1505
158, 923, 935, 936, 924, 1506, 1513, 1514, 1507, 940, 941, 942, 929, 1515, 1516, 1517,
1509, 1511, 1518, 1519, 1512
159, 935, 947, 948, 936, 1513, 1520, 1521, 1514, 952, 953, 954, 941, 1522, 1523, 1524,
1516, 1518, 1525, 1526, 1519
160, 947, 959, 960, 948, 1520, 1527, 1528, 1521, 964, 965, 966, 953, 1529, 1530, 1531,
1523, 1525, 1532, 1533, 1526
161, 969, 970, 971, 972, 1534, 1535, 1536, 1537, 973, 974, 975, 976, 1538, 1539, 1540,
1541, 1542, 1543, 1544, 1545
162, 970, 981, 982, 971, 1535, 1546, 1547, 1536, 983, 984, 985, 974, 1548, 1549, 1550,
1539, 1543, 1551, 1552, 1544
163, 981, 988, 989, 982, 1546, 1553, 1554, 1547, 990, 991, 992, 984, 1555, 1556, 1557,
1549, 1551, 1558, 1559, 1552
164, 988, 995, 996, 989, 1553, 1560, 1561, 1554, 997, 998, 999, 991, 1562, 1563, 1564,
1556, 1558, 1565, 1566, 1559
165, 995, 1002, 1003, 996, 1560, 1567, 1568, 1561, 1004, 1005, 1006, 998, 1569, 1570, 1571,
1563, 1565, 1572, 1573, 1566
166, 1002, 1009, 1010, 1003, 1567, 1574, 1575, 1568, 1011, 1012, 1013, 1005, 1576, 1577, 1578,
1570, 1572, 1579, 1580, 1573
167, 1009, 1016, 1017, 1010, 1574, 1581, 1582, 1575, 1018, 1019, 1020, 1012, 1583, 1584, 1585,
1577, 1579, 1586, 1587, 1580
168, 1016, 1023, 1024, 1017, 1581, 1588, 1589, 1582, 1025, 1026, 1027, 1019, 1590, 1591, 1592,
1584, 1586, 1593, 1594, 1587
169, 1023, 1030, 1031, 1024, 1588, 1595, 1596, 1589, 1032, 1033, 1034, 1026, 1597, 1598, 1599,
1591, 1593, 1600, 1601, 1594
170, 1030, 1037, 1038, 1031, 1595, 1602, 1603, 1596, 1039, 1040, 1041, 1033, 1604, 1605, 1606,
1598, 1600, 1607, 1608, 1601
171, 1037, 1044, 1045, 1038, 1602, 1609, 1610, 1603, 1046, 1047, 1048, 1040, 1611, 1612, 1613,
1605, 1607, 1614, 1615, 1608
172, 1044, 1051, 1052, 1045, 1609, 1616, 1617, 1610, 1053, 1054, 1055, 1047, 1618, 1619, 1620,
1612, 1614, 1621, 1622, 1615
173, 1051, 1058, 1059, 1052, 1616, 1623, 1624, 1617, 1060, 1061, 1062, 1054, 1625, 1626, 1627,
1619, 1621, 1628, 1629, 1622
174, 1058, 1065, 1066, 1059, 1623, 1630, 1631, 1624, 1067, 1068, 1069, 1061, 1632, 1633, 1634,
1626, 1628, 1635, 1636, 1629
175, 1065, 1072, 1073, 1066, 1630, 1637, 1638, 1631, 1074, 1075, 1076, 1068, 1639, 1640, 1641,
1633, 1635, 1642, 1643, 1636
176, 1072, 1079, 1080, 1073, 1637, 1644, 1645, 1638, 1081, 1082, 1083, 1075, 1646, 1647, 1648,
1640, 1642, 1649, 1650, 1643
177, 1079, 1086, 1087, 1080, 1644, 1651, 1652, 1645, 1088, 1089, 1090, 1082, 1653, 1654, 1655,
1647, 1649, 1656, 1657, 1650
178, 1086, 1093, 1094, 1087, 1651, 1658, 1659, 1652, 1095, 1096, 1097, 1089, 1660, 1661, 1662,
1654, 1656, 1663, 1664, 1657
179, 1093, 1100, 1101, 1094, 1658, 1665, 1666, 1659, 1102, 1103, 1104, 1096, 1667, 1668, 1669,
1661, 1663, 1670, 1671, 1664
180, 1100, 1107, 1108, 1101, 1665, 1672, 1673, 1666, 1109, 1110, 1111, 1103, 1674, 1675, 1676,
1668, 1670, 1677, 1678, 1671
181, 1107, 1114, 1115, 1108, 1672, 1679, 1680, 1673, 1116, 1117, 1118, 1110, 1681, 1682, 1683,
1675, 1677, 1684, 1685, 1678
182, 1114, 1121, 1122, 1115, 1679, 1686, 1687, 1680, 1123, 1124, 1125, 1117, 1688, 1689, 1690,
1682, 1684, 1691, 1692, 1685
183, 1121, 1128, 1129, 1122, 1686, 1693, 1694, 1687, 1130, 1131, 1132, 1124, 1695, 1696, 1697,
1689, 1691, 1698, 1699, 1692
184, 1128, 1135, 1136, 1129, 1693, 1700, 1701, 1694, 1137, 1138, 1139, 1131, 1702, 1703, 1704,
1696, 1698, 1705, 1706, 1699
185, 1135, 1142, 1143, 1136, 1700, 1707, 1708, 1701, 1144, 1145, 1146, 1138, 1709, 1710, 1711,
1703, 1705, 1712, 1713, 1706
186, 1142, 1149, 1150, 1143, 1707, 1714, 1715, 1708, 1151, 1152, 1153, 1145, 1716, 1717, 1718,
1710, 1712, 1719, 1720, 1713
187, 1149, 1156, 1157, 1150, 1714, 1721, 1722, 1715, 1158, 1159, 1160, 1152, 1723, 1724, 1725,
1717, 1719, 1726, 1727, 1720
188, 1156, 1163, 1164, 1157, 1721, 1728, 1729, 1722, 1165, 1166, 1167, 1159, 1730, 1731, 1732,
1724, 1726, 1733, 1734, 1727
189, 1163, 1170, 1171, 1164, 1728, 1735, 1736, 1729, 1172, 1173, 1174, 1166, 1737, 1738, 1739,
1731, 1733, 1740, 1741, 1734
190, 1170, 1177, 1178, 1171, 1735, 1742, 1743, 1736, 1179, 1180, 1181, 1173, 1744, 1745, 1746,
1738, 1740, 1747, 1748, 1741
191, 1177, 1184, 1185, 1178, 1742, 1749, 1750, 1743, 1186, 1187, 1188, 1180, 1751, 1752, 1753,
1745, 1747, 1754, 1755, 1748
192, 1184, 1191, 1192, 1185, 1749, 1756, 1757, 1750, 1193, 1194, 1195, 1187, 1758, 1759, 1760,
1752, 1754, 1761, 1762, 1755
193, 1191, 1198, 1199, 1192, 1756, 1763, 1764, 1757, 1200, 1201, 1202, 1194, 1765, 1766, 1767,
1759, 1761, 1768, 1769, 1762
194, 1198, 1205, 1206, 1199, 1763, 1770, 1771, 1764, 1207, 1208, 1209, 1201, 1772, 1773, 1774,
1766, 1768, 1775, 1776, 1769
195, 1205, 1212, 1213, 1206, 1770, 1777, 1778, 1771, 1214, 1215, 1216, 1208, 1779, 1780, 1781,
1773, 1775, 1782, 1783, 1776
196, 1212, 1219, 1220, 1213, 1777, 1784, 1785, 1778, 1221, 1222, 1223, 1215, 1786, 1787, 1788,
1780, 1782, 1789, 1790, 1783
197, 1219, 1226, 1227, 1220, 1784, 1791, 1792, 1785, 1228, 1229, 1230, 1222, 1793, 1794, 1795,
1787, 1789, 1796, 1797, 1790
198, 1226, 1233, 1234, 1227, 1791, 1798, 1799, 1792, 1235, 1236, 1237, 1229, 1800, 1801, 1802,
1794, 1796, 1803, 1804, 1797
199, 1233, 1240, 1241, 1234, 1798, 1805, 1806, 1799, 1242, 1243, 1244, 1236, 1807, 1808, 1809,
1801, 1803, 1810, 1811, 1804
200, 1240, 1247, 1248, 1241, 1805, 1812, 1813, 1806, 1249, 1250, 1251, 1243, 1814, 1815, 1816,
1808, 1810, 1817, 1818, 1811
201, 1247, 1254, 1255, 1248, 1812, 1819, 1820, 1813, 1256, 1257, 1258, 1250, 1821, 1822, 1823,
1815, 1817, 1824, 1825, 1818
202, 1254, 1261, 1262, 1255, 1819, 1826, 1827, 1820, 1263, 1264, 1265, 1257, 1828, 1829, 1830,
1822, 1824, 1831, 1832, 1825
203, 1261, 1268, 1269, 1262, 1826, 1833, 1834, 1827, 1270, 1271, 1272, 1264, 1835, 1836, 1837,
1829, 1831, 1838, 1839, 1832
204, 1268, 1275, 1276, 1269, 1833, 1840, 1841, 1834, 1277, 1278, 1279, 1271, 1842, 1843, 1844,
1836, 1838, 1845, 1846, 1839
205, 1275, 1282, 1283, 1276, 1840, 1847, 1848, 1841, 1284, 1285, 1286, 1278, 1849, 1850, 1851,
1843, 1845, 1852, 1853, 1846
206, 1282, 1289, 1290, 1283, 1847, 1854, 1855, 1848, 1291, 1292, 1293, 1285, 1856, 1857, 1858,
1850, 1852, 1859, 1860, 1853
207, 1289, 1296, 1297, 1290, 1854, 1861, 1862, 1855, 1298, 1299, 1300, 1292, 1863, 1864, 1865,
1857, 1859, 1866, 1867, 1860
208, 1296, 1303, 1304, 1297, 1861, 1868, 1869, 1862, 1305, 1306, 1307, 1299, 1870, 1871, 1872,
1864, 1866, 1873, 1874, 1867
209, 1303, 1310, 1311, 1304, 1868, 1875, 1876, 1869, 1312, 1313, 1314, 1306, 1877, 1878, 1879,
1871, 1873, 1880, 1881, 1874
210, 1310, 1317, 1318, 1311, 1875, 1882, 1883, 1876, 1319, 1320, 1321, 1313, 1884, 1885, 1886,
1878, 1880, 1887, 1888, 1881
211, 1317, 1324, 1325, 1318, 1882, 1889, 1890, 1883, 1326, 1327, 1328, 1320, 1891, 1892, 1893,
1885, 1887, 1894, 1895, 1888
212, 1324, 1331, 1332, 1325, 1889, 1896, 1897, 1890, 1333, 1334, 1335, 1327, 1898, 1899, 1900,
1892, 1894, 1901, 1902, 1895
213, 1331, 1338, 1339, 1332, 1896, 1903, 1904, 1897, 1340, 1341, 1342, 1334, 1905, 1906, 1907,
1899, 1901, 1908, 1909, 1902
214, 1338, 1345, 1346, 1339, 1903, 1910, 1911, 1904, 1347, 1348, 1349, 1341, 1912, 1913, 1914,
1906, 1908, 1915, 1916, 1909
215, 1345, 1352, 1353, 1346, 1910, 1917, 1918, 1911, 1354, 1355, 1356, 1348, 1919, 1920, 1921,
1913, 1915, 1922, 1923, 1916
216, 1352, 1359, 1360, 1353, 1917, 1924, 1925, 1918, 1361, 1362, 1363, 1355, 1926, 1927, 1928,
1920, 1922, 1929, 1930, 1923
217, 1359, 1366, 1367, 1360, 1924, 1931, 1932, 1925, 1368, 1369, 1370, 1362, 1933, 1934, 1935,
1927, 1929, 1936, 1937, 1930
218, 1366, 1373, 1374, 1367, 1931, 1938, 1939, 1932, 1375, 1376, 1377, 1369, 1940, 1941, 1942,
1934, 1936, 1943, 1944, 1937
219, 1373, 1380, 1381, 1374, 1938, 1945, 1946, 1939, 1382, 1383, 1384, 1376, 1947, 1948, 1949,
1941, 1943, 1950, 1951, 1944
220, 1380, 1387, 1388, 1381, 1945, 1952, 1953, 1946, 1389, 1390, 1391, 1383, 1954, 1955, 1956,
1948, 1950, 1957, 1958, 1951
221, 1387, 1394, 1395, 1388, 1952, 1959, 1960, 1953, 1396, 1397, 1398, 1390, 1961, 1962, 1963,
1955, 1957, 1964, 1965, 1958
222, 1394, 1401, 1402, 1395, 1959, 1966, 1967, 1960, 1403, 1404, 1405, 1397, 1968, 1969, 1970,
1962, 1964, 1971, 1972, 1965
223, 1401, 1408, 1409, 1402, 1966, 1973, 1974, 1967, 1410, 1411, 1412, 1404, 1975, 1976, 1977,
1969, 1971, 1978, 1979, 1972
224, 1408, 1415, 1416, 1409, 1973, 1980, 1981, 1974, 1417, 1418, 1419, 1411, 1982, 1983, 1984,
1976, 1978, 1985, 1986, 1979
225, 1415, 1422, 1423, 1416, 1980, 1987, 1988, 1981, 1424, 1425, 1426, 1418, 1989, 1990, 1991,
1983, 1985, 1992, 1993, 1986
226, 1422, 1429, 1430, 1423, 1987, 1994, 1995, 1988, 1431, 1432, 1433, 1425, 1996, 1997, 1998,
1990, 1992, 1999, 2000, 1993
227, 1429, 1436, 1437, 1430, 1994, 2001, 2002, 1995, 1438, 1439, 1440, 1432, 2003, 2004, 2005,
1997, 1999, 2006, 2007, 2000
228, 1436, 1443, 1444, 1437, 2001, 2008, 2009, 2002, 1445, 1446, 1447, 1439, 2010, 2011, 2012,
2004, 2006, 2013, 2014, 2007
229, 1443, 1450, 1451, 1444, 2008, 2015, 2016, 2009, 1452, 1453, 1454, 1446, 2017, 2018, 2019,
2011, 2013, 2020, 2021, 2014
230, 1450, 1457, 1458, 1451, 2015, 2022, 2023, 2016, 1459, 1460, 1461, 1453, 2024, 2025, 2026,
2018, 2020, 2027, 2028, 2021
231, 1457, 1464, 1465, 1458, 2022, 2029, 2030, 2023, 1466, 1467, 1468, 1460, 2031, 2032, 2033,
2025, 2027, 2034, 2035, 2028
232, 1464, 1471, 1472, 1465, 2029, 2036, 2037, 2030, 1473, 1474, 1475, 1467, 2038, 2039, 2040,
2032, 2034, 2041, 2042, 2035
233, 1471, 1478, 1479, 1472, 2036, 2043, 2044, 2037, 1480, 1481, 1482, 1474, 2045, 2046, 2047,
2039, 2041, 2048, 2049, 2042
234, 1478, 1485, 1486, 1479, 2043, 2050, 2051, 2044, 1487, 1488, 1489, 1481, 2052, 2053, 2054,
2046, 2048, 2055, 2056, 2049
235, 1485, 1492, 1493, 1486, 2050, 2057, 2058, 2051, 1494, 1495, 1496, 1488, 2059, 2060, 2061,
2053, 2055, 2062, 2063, 2056
236, 1492, 1499, 1500, 1493, 2057, 2064, 2065, 2058, 1501, 1502, 1503, 1495, 2066, 2067, 2068,
2060, 2062, 2069, 2070, 2063
237, 1499, 1506, 1507, 1500, 2064, 2071, 2072, 2065, 1508, 1509, 1510, 1502, 2073, 2074, 2075,
2067, 2069, 2076, 2077, 2070
238, 1506, 1513, 1514, 1507, 2071, 2078, 2079, 2072, 1515, 1516, 1517, 1509, 2080, 2081, 2082,
2074, 2076, 2083, 2084, 2077
239, 1513, 1520, 1521, 1514, 2078, 2085, 2086, 2079, 1522, 1523, 1524, 1516, 2087, 2088, 2089,
2081, 2083, 2090, 2091, 2084
240, 1520, 1527, 1528, 1521, 2085, 2092, 2093, 2086, 1529, 1530, 1531, 1523, 2094, 2095, 2096,
2088, 2090, 2097, 2098, 2091
241, 1534, 1535, 1536, 1537, 2099, 2100, 2101, 2102, 1538, 1539, 1540, 1541, 2103, 2104, 2105,
2106, 2107, 2108, 2109, 2110
242, 1535, 1546, 1547, 1536, 2100, 2111, 2112, 2101, 1548, 1549, 1550, 1539, 2113, 2114, 2115,
2104, 2108, 2116, 2117, 2109
243, 1546, 1553, 1554, 1547, 2111, 2118, 2119, 2112, 1555, 1556, 1557, 1549, 2120, 2121, 2122,
2114, 2116, 2123, 2124, 2117
244, 1553, 1560, 1561, 1554, 2118, 2125, 2126, 2119, 1562, 1563, 1564, 1556, 2127, 2128, 2129,
2121, 2123, 2130, 2131, 2124
245, 1560, 1567, 1568, 1561, 2125, 2132, 2133, 2126, 1569, 1570, 1571, 1563, 2134, 2135, 2136,
2128, 2130, 2137, 2138, 2131
246, 1567, 1574, 1575, 1568, 2132, 2139, 2140, 2133, 1576, 1577, 1578, 1570, 2141, 2142, 2143,
2135, 2137, 2144, 2145, 2138
247, 1574, 1581, 1582, 1575, 2139, 2146, 2147, 2140, 1583, 1584, 1585, 1577, 2148, 2149, 2150,
2142, 2144, 2151, 2152, 2145
248, 1581, 1588, 1589, 1582, 2146, 2153, 2154, 2147, 1590, 1591, 1592, 1584, 2155, 2156, 2157,
2149, 2151, 2158, 2159, 2152
249, 1588, 1595, 1596, 1589, 2153, 2160, 2161, 2154, 1597, 1598, 1599, 1591, 2162, 2163, 2164,
2156, 2158, 2165, 2166, 2159
250, 1595, 1602, 1603, 1596, 2160, 2167, 2168, 2161, 1604, 1605, 1606, 1598, 2169, 2170, 2171,
2163, 2165, 2172, 2173, 2166
251, 1602, 1609, 1610, 1603, 2167, 2174, 2175, 2168, 1611, 1612, 1613, 1605, 2176, 2177, 2178,
2170, 2172, 2179, 2180, 2173
252, 1609, 1616, 1617, 1610, 2174, 2181, 2182, 2175, 1618, 1619, 1620, 1612, 2183, 2184, 2185,
2177, 2179, 2186, 2187, 2180
253, 1616, 1623, 1624, 1617, 2181, 2188, 2189, 2182, 1625, 1626, 1627, 1619, 2190, 2191, 2192,
2184, 2186, 2193, 2194, 2187
254, 1623, 1630, 1631, 1624, 2188, 2195, 2196, 2189, 1632, 1633, 1634, 1626, 2197, 2198, 2199,
2191, 2193, 2200, 2201, 2194
255, 1630, 1637, 1638, 1631, 2195, 2202, 2203, 2196, 1639, 1640, 1641, 1633, 2204, 2205, 2206,
2198, 2200, 2207, 2208, 2201
256, 1637, 1644, 1645, 1638, 2202, 2209, 2210, 2203, 1646, 1647, 1648, 1640, 2211, 2212, 2213,
2205, 2207, 2214, 2215, 2208
257, 1644, 1651, 1652, 1645, 2209, 2216, 2217, 2210, 1653, 1654, 1655, 1647, 2218, 2219, 2220,
2212, 2214, 2221, 2222, 2215
258, 1651, 1658, 1659, 1652, 2216, 2223, 2224, 2217, 1660, 1661, 1662, 1654, 2225, 2226, 2227,
2219, 2221, 2228, 2229, 2222
259, 1658, 1665, 1666, 1659, 2223, 2230, 2231, 2224, 1667, 1668, 1669, 1661, 2232, 2233, 2234,
2226, 2228, 2235, 2236, 2229
260, 1665, 1672, 1673, 1666, 2230, 2237, 2238, 2231, 1674, 1675, 1676, 1668, 2239, 2240, 2241,
2233, 2235, 2242, 2243, 2236
261, 1672, 1679, 1680, 1673, 2237, 2244, 2245, 2238, 1681, 1682, 1683, 1675, 2246, 2247, 2248,
2240, 2242, 2249, 2250, 2243
262, 1679, 1686, 1687, 1680, 2244, 2251, 2252, 2245, 1688, 1689, 1690, 1682, 2253, 2254, 2255,
2247, 2249, 2256, 2257, 2250
263, 1686, 1693, 1694, 1687, 2251, 2258, 2259, 2252, 1695, 1696, 1697, 1689, 2260, 2261, 2262,
2254, 2256, 2263, 2264, 2257
264, 1693, 1700, 1701, 1694, 2258, 2265, 2266, 2259, 1702, 1703, 1704, 1696, 2267, 2268, 2269,
2261, 2263, 2270, 2271, 2264
265, 1700, 1707, 1708, 1701, 2265, 2272, 2273, 2266, 1709, 1710, 1711, 1703, 2274, 2275, 2276,
2268, 2270, 2277, 2278, 2271
266, 1707, 1714, 1715, 1708, 2272, 2279, 2280, 2273, 1716, 1717, 1718, 1710, 2281, 2282, 2283,
2275, 2277, 2284, 2285, 2278
267, 1714, 1721, 1722, 1715, 2279, 2286, 2287, 2280, 1723, 1724, 1725, 1717, 2288, 2289, 2290,
2282, 2284, 2291, 2292, 2285
268, 1721, 1728, 1729, 1722, 2286, 2293, 2294, 2287, 1730, 1731, 1732, 1724, 2295, 2296, 2297,
2289, 2291, 2298, 2299, 2292
269, 1728, 1735, 1736, 1729, 2293, 2300, 2301, 2294, 1737, 1738, 1739, 1731, 2302, 2303, 2304,
2296, 2298, 2305, 2306, 2299
270, 1735, 1742, 1743, 1736, 2300, 2307, 2308, 2301, 1744, 1745, 1746, 1738, 2309, 2310, 2311,
2303, 2305, 2312, 2313, 2306
271, 1742, 1749, 1750, 1743, 2307, 2314, 2315, 2308, 1751, 1752, 1753, 1745, 2316, 2317, 2318,
2310, 2312, 2319, 2320, 2313
272, 1749, 1756, 1757, 1750, 2314, 2321, 2322, 2315, 1758, 1759, 1760, 1752, 2323, 2324, 2325,
2317, 2319, 2326, 2327, 2320
273, 1756, 1763, 1764, 1757, 2321, 2328, 2329, 2322, 1765, 1766, 1767, 1759, 2330, 2331, 2332,
2324, 2326, 2333, 2334, 2327
274, 1763, 1770, 1771, 1764, 2328, 2335, 2336, 2329, 1772, 1773, 1774, 1766, 2337, 2338, 2339,
2331, 2333, 2340, 2341, 2334
275, 1770, 1777, 1778, 1771, 2335, 2342, 2343, 2336, 1779, 1780, 1781, 1773, 2344, 2345, 2346,
2338, 2340, 2347, 2348, 2341
276, 1777, 1784, 1785, 1778, 2342, 2349, 2350, 2343, 1786, 1787, 1788, 1780, 2351, 2352, 2353,
2345, 2347, 2354, 2355, 2348
277, 1784, 1791, 1792, 1785, 2349, 2356, 2357, 2350, 1793, 1794, 1795, 1787, 2358, 2359, 2360,
2352, 2354, 2361, 2362, 2355
278, 1791, 1798, 1799, 1792, 2356, 2363, 2364, 2357, 1800, 1801, 1802, 1794, 2365, 2366, 2367,
2359, 2361, 2368, 2369, 2362
279, 1798, 1805, 1806, 1799, 2363, 2370, 2371, 2364, 1807, 1808, 1809, 1801, 2372, 2373, 2374,
2366, 2368, 2375, 2376, 2369
280, 1805, 1812, 1813, 1806, 2370, 2377, 2378, 2371, 1814, 1815, 1816, 1808, 2379, 2380, 2381,
2373, 2375, 2382, 2383, 2376
281, 1812, 1819, 1820, 1813, 2377, 2384, 2385, 2378, 1821, 1822, 1823, 1815, 2386, 2387, 2388,
2380, 2382, 2389, 2390, 2383
282, 1819, 1826, 1827, 1820, 2384, 2391, 2392, 2385, 1828, 1829, 1830, 1822, 2393, 2394, 2395,
2387, 2389, 2396, 2397, 2390
283, 1826, 1833, 1834, 1827, 2391, 2398, 2399, 2392, 1835, 1836, 1837, 1829, 2400, 2401, 2402,
2394, 2396, 2403, 2404, 2397
284, 1833, 1840, 1841, 1834, 2398, 2405, 2406, 2399, 1842, 1843, 1844, 1836, 2407, 2408, 2409,
2401, 2403, 2410, 2411, 2404
285, 1840, 1847, 1848, 1841, 2405, 2412, 2413, 2406, 1849, 1850, 1851, 1843, 2414, 2415, 2416,
2408, 2410, 2417, 2418, 2411
286, 1847, 1854, 1855, 1848, 2412, 2419, 2420, 2413, 1856, 1857, 1858, 1850, 2421, 2422, 2423,
2415, 2417, 2424, 2425, 2418
287, 1854, 1861, 1862, 1855, 2419, 2426, 2427, 2420, 1863, 1864, 1865, 1857, 2428, 2429, 2430,
2422, 2424, 2431, 2432, 2425
288, 1861, 1868, 1869, 1862, 2426, 2433, 2434, 2427, 1870, 1871, 1872, 1864, 2435, 2436, 2437,
2429, 2431, 2438, 2439, 2432
289, 1868, 1875, 1876, 1869, 2433, 2440, 2441, 2434, 1877, 1878, 1879, 1871, 2442, 2443, 2444,
2436, 2438, 2445, 2446, 2439
290, 1875, 1882, 1883, 1876, 2440, 2447, 2448, 2441, 1884, 1885, 1886, 1878, 2449, 2450, 2451,
2443, 2445, 2452, 2453, 2446
291, 1882, 1889, 1890, 1883, 2447, 2454, 2455, 2448, 1891, 1892, 1893, 1885, 2456, 2457, 2458,
2450, 2452, 2459, 2460, 2453
292, 1889, 1896, 1897, 1890, 2454, 2461, 2462, 2455, 1898, 1899, 1900, 1892, 2463, 2464, 2465,
2457, 2459, 2466, 2467, 2460
293, 1896, 1903, 1904, 1897, 2461, 2468, 2469, 2462, 1905, 1906, 1907, 1899, 2470, 2471, 2472,
2464, 2466, 2473, 2474, 2467
294, 1903, 1910, 1911, 1904, 2468, 2475, 2476, 2469, 1912, 1913, 1914, 1906, 2477, 2478, 2479,
2471, 2473, 2480, 2481, 2474
295, 1910, 1917, 1918, 1911, 2475, 2482, 2483, 2476, 1919, 1920, 1921, 1913, 2484, 2485, 2486,
2478, 2480, 2487, 2488, 2481
296, 1917, 1924, 1925, 1918, 2482, 2489, 2490, 2483, 1926, 1927, 1928, 1920, 2491, 2492, 2493,
2485, 2487, 2494, 2495, 2488
297, 1924, 1931, 1932, 1925, 2489, 2496, 2497, 2490, 1933, 1934, 1935, 1927, 2498, 2499, 2500,
2492, 2494, 2501, 2502, 2495
298, 1931, 1938, 1939, 1932, 2496, 2503, 2504, 2497, 1940, 1941, 1942, 1934, 2505, 2506, 2507,
2499, 2501, 2508, 2509, 2502
299, 1938, 1945, 1946, 1939, 2503, 2510, 2511, 2504, 1947, 1948, 1949, 1941, 2512, 2513, 2514,
2506, 2508, 2515, 2516, 2509
300, 1945, 1952, 1953, 1946, 2510, 2517, 2518, 2511, 1954, 1955, 1956, 1948, 2519, 2520, 2521,
2513, 2515, 2522, 2523, 2516
301, 1952, 1959, 1960, 1953, 2517, 2524, 2525, 2518, 1961, 1962, 1963, 1955, 2526, 2527, 2528,
2520, 2522, 2529, 2530, 2523
302, 1959, 1966, 1967, 1960, 2524, 2531, 2532, 2525, 1968, 1969, 1970, 1962, 2533, 2534, 2535,
2527, 2529, 2536, 2537, 2530
303, 1966, 1973, 1974, 1967, 2531, 2538, 2539, 2532, 1975, 1976, 1977, 1969, 2540, 2541, 2542,
2534, 2536, 2543, 2544, 2537
304, 1973, 1980, 1981, 1974, 2538, 2545, 2546, 2539, 1982, 1983, 1984, 1976, 2547, 2548, 2549,
2541, 2543, 2550, 2551, 2544
305, 1980, 1987, 1988, 1981, 2545, 2552, 2553, 2546, 1989, 1990, 1991, 1983, 2554, 2555, 2556,
2548, 2550, 2557, 2558, 2551
306, 1987, 1994, 1995, 1988, 2552, 2559, 2560, 2553, 1996, 1997, 1998, 1990, 2561, 2562, 2563,
2555, 2557, 2564, 2565, 2558
307, 1994, 2001, 2002, 1995, 2559, 2566, 2567, 2560, 2003, 2004, 2005, 1997, 2568, 2569, 2570,
2562, 2564, 2571, 2572, 2565
308, 2001, 2008, 2009, 2002, 2566, 2573, 2574, 2567, 2010, 2011, 2012, 2004, 2575, 2576, 2577,
2569, 2571, 2578, 2579, 2572
309, 2008, 2015, 2016, 2009, 2573, 2580, 2581, 2574, 2017, 2018, 2019, 2011, 2582, 2583, 2584,
2576, 2578, 2585, 2586, 2579
310, 2015, 2022, 2023, 2016, 2580, 2587, 2588, 2581, 2024, 2025, 2026, 2018, 2589, 2590, 2591,
2583, 2585, 2592, 2593, 2586
311, 2022, 2029, 2030, 2023, 2587, 2594, 2595, 2588, 2031, 2032, 2033, 2025, 2596, 2597, 2598,
2590, 2592, 2599, 2600, 2593
312, 2029, 2036, 2037, 2030, 2594, 2601, 2602, 2595, 2038, 2039, 2040, 2032, 2603, 2604, 2605,
2597, 2599, 2606, 2607, 2600
313, 2036, 2043, 2044, 2037, 2601, 2608, 2609, 2602, 2045, 2046, 2047, 2039, 2610, 2611, 2612,
2604, 2606, 2613, 2614, 2607
314, 2043, 2050, 2051, 2044, 2608, 2615, 2616, 2609, 2052, 2053, 2054, 2046, 2617, 2618, 2619,
2611, 2613, 2620, 2621, 2614
315, 2050, 2057, 2058, 2051, 2615, 2622, 2623, 2616, 2059, 2060, 2061, 2053, 2624, 2625, 2626,
2618, 2620, 2627, 2628, 2621
316, 2057, 2064, 2065, 2058, 2622, 2629, 2630, 2623, 2066, 2067, 2068, 2060, 2631, 2632, 2633,
2625, 2627, 2634, 2635, 2628
317, 2064, 2071, 2072, 2065, 2629, 2636, 2637, 2630, 2073, 2074, 2075, 2067, 2638, 2639, 2640,
2632, 2634, 2641, 2642, 2635
318, 2071, 2078, 2079, 2072, 2636, 2643, 2644, 2637, 2080, 2081, 2082, 2074, 2645, 2646, 2647,
2639, 2641, 2648, 2649, 2642
319, 2078, 2085, 2086, 2079, 2643, 2650, 2651, 2644, 2087, 2088, 2089, 2081, 2652, 2653, 2654,
2646, 2648, 2655, 2656, 2649
320, 2085, 2092, 2093, 2086, 2650, 2657, 2658, 2651, 2094, 2095, 2096, 2088, 2659, 2660, 2661,
2653, 2655, 2662, 2663, 2656
*ELEMENT, TYPE=C3D8, ELSET=TOOL
321, 2664, 2665, 2866, 2865, 3066, 3067, 3268, 3267
322, 2665, 2666, 2867, 2866, 3067, 3068, 3269, 3268
323, 2666, 2667, 2868, 2867, 3068, 3069, 3270, 3269
324, 2667, 2668, 2869, 2868, 3069, 3070, 3271, 3270
325, 2668, 2669, 2870, 2869, 3070, 3071, 3272, 3271
326, 2669, 2670, 2871, 2870, 3071, 3072, 3273, 3272
327, 2670, 2671, 2872, 2871, 3072, 3073, 3274, 3273
328, 2671, 2672, 2873, 2872, 3073, 3074, 3275, 3274
329, 2672, 2673, 2874, 2873, 3074, 3075, 3276, 3275
330, 2673, 2674, 2875, 2874, 3075, 3076, 3277, 3276
331, 2674, 2675, 2876, 2875, 3076, 3077, 3278, 3277
332, 2675, 2676, 2877, 2876, 3077, 3078, 3279, 3278
333, 2676, 2677, 2878, 2877, 3078, 3079, 3280, 3279
334, 2677, 2678, 2879, 2878, 3079, 3080, 3281, 3280
335, 2678, 2679, 2880, 2879, 3080, 3081, 3282, 3281
336, 2679, 2680, 2881, 2880, 3081, 3082, 3283, 3282
337, 2680, 2681, 2882, 2881, 3082, 3083, 3284, 3283
338, 2681, 2682, 2883, 2882, 3083, 3084, 3285, 3284
339, 2682, 2683, 2884, 2883, 3084, 3085, 3286, 3285
340, 2683, 2684, 2885, 2884, 3085, 3086, 3287, 3286
341, 2684, 2685, 2886, 2885, 3086, 3087, 3288, 3287
342, 2685, 2686, 2887, 2886, 3087, 3088, 3289, 3288
343, 2686, 2687, 2888, 2887, 3088, 3089, 3290, 3289
344, 2687, 2688, 2889, 2888, 3089, 3090, 3291, 3290
345, 2688, 2689, 2890, 2889, 3090, 3091, 3292, 3291
346, 2689, 2690, 2891, 2890, 3091, 3092, 3293, 3292
347, 2690, 2691, 2892, 2891, 3092, 3093, 3294, 3293
348, 2691, 2692, 2893, 2892, 3093, 3094, 3295, 3294
349, 2692, 2693, 2894, 2893, 3094, 3095, 3296, 3295
350, 2693, 2694, 2895, 2894, 3095, 3096, 3297, 3296
351, 2694, 2695, 2896, 2895, 3096, 3097, 3298, 3297
352, 2695, 2696, 2897, 2896, 3097, 3098, 3299, 3298
353, 2696, 2697, 2898, 2897, 3098, 3099, 3300, 3299
354, 2697, 2698, 2899, 2898, 3099, 3100, 3301, 3300
355, 2698, 2699, 2900, 2899, 3100, 3101, 3302, 3301
356, 2699, 2700, 2901, 2900, 3101, 3102, 3303, 3302
357, 2700, 2701, 2902, 2901, 3102, 3103, 3304, 3303
358, 2701, 2702, 2903, 2902, 3103, 3104, 3305, 3304
359, 2702, 2703, 2904, 2903, 3104, 3105, 3306, 3305
360, 2703, 2704, 2905, 2904, 3105, 3106, 3307, 3306
361, 2704, 2705, 2906, 2905, 3106, 3107, 3308, 3307
362, 2705, 2706, 2907, 2906, 3107, 3108, 3309, 3308
363, 2706, 2707, 2908, 2907, 3108, 3109, 3310, 3309
364, 2707, 2708, 2909, 2908, 3109, 3110, 3311, 3310
365, 2708, 2709, 2910, 2909, 3110, 3111, 3312, 3311
366, 2709, 2710, 2911, 2910, 3111, 3112, 3313, 3312
367, 2710, 2711, 2912, 2911, 3112, 3113, 3314, 3313
368, 2711, 2712, 2913, 2912, 3113, 3114, 3315, 3314
369, 2712, 2713, 2914, 2913, 3114, 3115, 3316, 3315
370, 2713, 2714, 2915, 2914, 3115, 3116, 3317, 3316
371, 2714, 2715, 2916, 2915, 3116, 3117, 3318, 3317
372, 2715, 2716, 2917, 2916, 3117, 3118, 3319, 3318
373, 2716, 2717, 2918, 2917, 3118, 3119, 3320, 3319
374, 2717, 2718, 2919, 2918, 3119, 3120, 3321, 3320
375, 2718, 2719, 2920, 2919, 3120, 3121, 3322, 3321
376, 2719, 2720, 2921, 2920, 3121, 3122, 3323, 3322
377, 2720, 2721, 2922, 2921, 3122, 3123, 3324, 3323
378, 2721, 2722, 2923, 2922, 3123, 3124, 3325, 3324
379, 2722, 2723, 2924, 2923, 3124, 3125, 3326, 3325
380, 2723, 2724, 2925, 2924, 3125, 3126, 3327, 3326
381, 2724, 2725, 2926, 2925, 3126, 3127, 3328, 3327
382, 2725, 2726, 2927, 2926, 3127, 3128, 3329, 3328
383, 2726, 2727, 2928, 2927, 3128, 3129, 3330, 3329
384, 2727, 2728, 2929, 2928, 3129, 3130, 3331, 3330
385, 2728, 2729, 2930, 2929, 3130, 3131, 3332, 3331
386, 2729, 2730, 2931, 2930, 3131, 3132, 3333, 3332
387, 2730, 2731, 2932, 2931, 3132, 3133, 3334, 3333
388, 2731, 2732, 2933, 2932, 3133, 3134, 3335, 3334
389, 2732, 2733, 2934, 2933, 3134, 3135, 3336, 3335
390, 2733, 2734, 2935, 2934, 3135, 3136, 3337, 3336
391, 2734, 2735, 2936, 2935, 3136, 3137, 3338, 3337
392, 2735, 2736, 2937, 2936, 3137, 3138, 3339, 3338
393, 2736, 2737, 2938, 2937, 3138, 3139, 3340, 3339
394, 2737, 2738, 2939, 2938, 3139, 3140, 3341, 3340
395, 2738, 2739, 2940, 2939, 3140, 3141, 3342, 3341
396, 2739, 2740, 2941, 2940, 3141, 3142, 3343, 3342
397, 2740, 2741, 2942, 2941, 3142, 3143, 3344, 3343
398, 2741, 2742, 2943, 2942, 3143, 3144, 3345, 3344
399, 2742, 2743, 2944, 2943, 3144, 3145, 3346, 3345
400, 2743, 2744, 2945, 2944, 3145, 3146, 3347, 3346
401, 2744, 2745, 2946, 2945, 3146, 3147, 3348, 3347
402, 2745, 2746, 2947, 2946, 3147, 3148, 3349, 3348
403, 2746, 2747, 2948, 2947, 3148, 3149, 3350, 3349
404, 2747, 2748, 2949, 2948, 3149, 3150, 3351, 3350
405, 2748, 2749, 2950, 2949, 3150, 3151, 3352, 3351
406, 2749, 2750, 2951, 2950, 3151, 3152, 3353, 3352
407, 2750, 2751, 2952, 2951, 3152, 3153, 3354, 3353
408, 2751, 2752, 2953, 2952, 3153, 3154, 3355, 3354
409, 2752, 2753, 2954, 2953, 3154, 3155, 3356, 3355
410, 2753, 2754, 2955, 2954, 3155, 3156, 3357, 3356
411, 2754, 2755, 2956, 2955, 3156, 3157, 3358, 3357
412, 2755, 2756, 2957, 2956, 3157, 3158, 3359, 3358
413, 2756, 2757, 2958, 2957, 3158, 3159, 3360, 3359
414, 2757, 2758, 2959, 2958, 3159, 3160, 3361, 3360
415, 2758, 2759, 2960, 2959, 3160, 3161, 3362, 3361
416, 2759, 2760, 2961, 2960, 3161, 3162, 3363, 3362
417, 2760, 2761, 2962, 2961, 3162, 3163, 3364, 3363
418, 2761, 2762, 2963, 2962, 3163, 3164, 3365, 3364
419, 2762, 2763, 2964, 2963, 3164, 3165, 3366, 3365
420, 2763, 2764, 2965, 2964, 3165, 3166, 3367, 3366
421, 2764, 2765, 2966, 2965, 3166, 3167, 3368, 3367
422, 2765, 2766, 2967, 2966, 3167, 3168, 3369, 3368
423, 2766, 2767, 2968, 2967, 3168, 3169, 3370, 3369
424, 2767, 2768, 2969, 2968, 3169, 3170, 3371, 3370
425, 2768, 2769, 2970, 2969, 3170, 3171, 3372, 3371
426, 2769, 2770, 2971, 2970, 3171, 3172, 3373, 3372
427, 2770, 2771, 2972, 2971, 3172, 3173, 3374, 3373
428, 2771, 2772, 2973, 2972, 3173, 3174, 3375, 3374
429, 2772, 2773, 2974, 2973, 3174, 3175, 3376, 3375
430, 2773, 2774, 2975, 2974, 3175, 3176, 3377, 3376
431, 2774, 2775, 2976, 2975, 3176, 3177, 3378, 3377
432, 2775, 2776, 2977, 2976, 3177, 3178, 3379, 3378
433, 2776, 2777, 2978, 2977, 3178, 3179, 3380, 3379
434, 2777, 2778, 2979, 2978, 3179, 3180, 3381, 3380
435, 2778, 2779, 2980, 2979, 3180, 3181, 3382, 3381
436, 2779, 2780, 2981, 2980, 3181, 3182, 3383, 3382
437, 2780, 2781, 2982, 2981, 3182, 3183, 3384, 3383
438, 2781, 2782, 2983, 2982, 3183, 3184, 3385, 3384
439, 2782, 2783, 2984, 2983, 3184, 3185, 3386, 3385
440, 2783, 2784, 2985, 2984, 3185, 3186, 3387, 3386
441, 2784, 2785, 2986, 2985, 3186, 3187, 3388, 3387
442, 2785, 2786, 2987, 2986, 3187, 3188, 3389, 3388
443, 2786, 2787, 2988, 2987, 3188, 3189, 3390, 3389
444, 2787, 2788, 2989, 2988, 3189, 3190, 3391, 3390
445, 2788, 2789, 2990, 2989, 3190, 3191, 3392, 3391
446, 2789, 2790, 2991, 2990, 3191, 3192, 3393, 3392
447, 2790, 2791, 2992, 2991, 3192, 3193, 3394, 3393
448, 2791, 2792, 2993, 2992, 3193, 3194, 3395, 3394
449, 2792, 2793, 2994, 2993, 3194, 3195, 3396, 3395
450, 2793, 2794, 2995, 2994, 3195, 3196, 3397, 3396
451, 2794, 2795, 2996, 2995, 3196, 3197, 3398, 3397
452, 2795, 2796, 2997, 2996, 3197, 3198, 3399, 3398
453, 2796, 2797, 2998, 2997, 3198, 3199, 3400, 3399
454, 2797, 2798, 2999, 2998, 3199, 3200, 3401, 3400
455, 2798, 2799, 3000, 2999, 3200, 3201, 3402, 3401
456, 2799, 2800, 3001, 3000, 3201, 3202, 3403, 3402
457, 2800, 2801, 3002, 3001, 3202, 3203, 3404, 3403
458, 2801, 2802, 3003, 3002, 3203, 3204, 3405, 3404
459, 2802, 2803, 3004, 3003, 3204, 3205, 3406, 3405
460, 2803, 2804, 3005, 3004, 3205, 3206, 3407, 3406
461, 2804, 2805, 3006, 3005, 3206, 3207, 3408, 3407
462, 2805, 2806, 3007, 3006, 3207, 3208, 3409, 3408
463, 2806, 2807, 3008, 3007, 3208, 3209, 3410, 3409
464, 2807, 2808, 3009, 3008, 3209, 3210, 3411, 3410
465, 2808, 2809, 3010, 3009, 3210, 3211, 3412, 3411
466, 2809, 2810, 3011, 3010, 3211, 3212, 3413, 3412
467, 2810, 2811, 3012, 3011, 3212, 3213, 3414, 3413
468, 2811, 2812, 3013, 3012, 3213, 3214, 3415, 3414
469, 2812, 2813, 3014, 3013, 3214, 3215, 3416, 3415
470, 2813, 2814, 3015, 3014, 3215, 3216, 3417, 3416
471, 2814, 2815, 3016, 3015, 3216, 3217, 3418, 3417
472, 2815, 2816, 3017, 3016, 3217, 3218, 3419, 3418
473, 2816, 2817, 3018, 3017, 3218, 3219, 3420, 3419
474, 2817, 2818, 3019, 3018, 3219, 3220, 3421, 3420
475, 2818, 2819, 3020, 3019, 3220, 3221, 3422, 3421
476, 2819, 2820, 3021, 3020, 3221, 3222, 3423, 3422
477, 2820, 2821, 3022, 3021, 3222, 3223, 3424, 3423
478, 2821, 2822, 3023, 3022, 3223, 3224, 3425, 3424
479, 2822, 2823, 3024, 3023, 3224, 3225, 3426, 3425
480, 2823, 2824, 3025, 3024, 3225, 3226, 3427, 3426
481, 2824, 2825, 3026, 3025, 3226, 3227, 3428, 3427
482, 2825, 2826, 3027, 3026, 3227, 3228, 3429, 3428
483, 2826, 2827, 3028, 3027, 3228, 3229, 3430, 3429
484, 2827, 2828, 3029, 3028, 3229, 3230, 3431, 3430
485, 2828, 2829, 3030, 3029, 3230, 3231, 3432, 3431
486, 2829, 2830, 3031, 3030, 3231, 3232, 3433, 3432
487, 2830, 2831, 3032, 3031, 3232, 3233, 3434, 3433
488, 2831, 2832, 3033, 3032, 3233, 3234, 3435, 3434
489, 2832, 2833, 3034, 3033, 3234, 3235, 3436, 3435
490, 2833, 2834, 3035, 3034, 3235, 3236, 3437, 3436
491, 2834, 2835, 3036, 3035, 3236, 3237, 3438, 3437
492, 2835, 2836, 3037, 3036, 3237, 3238, 3439, 3438
493, 2836, 2837, 3038, 3037, 3238, 3239, 3440, 3439
494, 2837, 2838, 3039, 3038, 3239, 3240, 3441, 3440
495, 2838, 2839, 3040, 3039, 3240, 3241, 3442, 3441
496, 2839, 2840, 3041, 3040, 3241, 3242, 3443, 3442
497, 2840, 2841, 3042, 3041, 3242, 3243, 3444, 3443
498, 2841, 2842, 3043, 3042, 3243, 3244, 3445, 3444
499, 2842, 2843, 3044, 3043, 3244, 3245, 3446, 3445
500, 2843, 2844, 3045, 3044, 3245, 3246, 3447, 3446
501, 2844, 2845, 3046, 3045, 3246, 3247, 3448, 3447
502, 2845, 2846, 3047, 3046, 3247, 3248, 3449, 3448
503, 2846, 2847, 3048, 3047, 3248, 3249, 3450, 3449
504, 2847, 2848, 3049, 3048, 3249, 3250, 3451, 3450
505, 2848, 2849, 3050, 3049, 3250, 3251, 3452, 3451
506, 2849, 2850, 3051, 3050, 3251, 3252, 3453, 3452
507, 2850, 2851, 3052, 3051, 3252, 3253, 3454, 3453
508, 2851, 2852, 3053, 3052, 3253, 3254, 3455, 3454
509, 2852, 2853, 3054, 3053, 3254, 3255, 3456, 3455
510, 2853, 2854, 3055, 3054, 3255, 3256, 3457, 3456
511, 2854, 2855, 3056, 3055, 3256, 3257, 3458, 3457
512, 2855, 2856, 3057, 3056, 3257, 3258, 3459, 3458
513, 2856, 2857, 3058, 3057, 3258, 3259, 3460, 3459
514, 2857, 2858, 3059, 3058, 3259, 3260, 3461, 3460
515, 2858, 2859, 3060, 3059, 3260, 3261, 3462, 3461
516, 2859, 2860, 3061, 3060, 3261, 3262, 3463, 3462
517, 2860, 2861, 3062, 3061, 3262, 3263, 3464, 3463
518, 2861, 2862, 3063, 3062, 3263, 3264, 3465, 3464
519, 2862, 2863, 3064, 3063, 3264, 3265, 3466, 3465
520, 2863, 2864, 3065, 3064, 3265, 3266, 3467, 3466
*NSET, NSET=CLAMP
1, 2, 3, 4, 5, 6, 7, 8, 9, 10, 11, 12
13, 14, 15, 16, 17, 18, 19, 20, 21, 22, 23, 24
25, 26, 27, 28, 29, 30, 31, 32, 33, 34, 35, 36
37, 38, 39, 40, 41, 42, 43, 44, 45, 46, 47, 48
49, 50, 51, 52, 53, 54, 55, 56, 57, 58, 59, 60
61, 62, 63, 64, 65, 66, 67, 68, 69, 70, 71, 72
73, 74, 75, 76, 77, 78, 79, 80, 81, 82, 83, 84
85, 86, 87, 88, 89, 90, 91, 92, 93, 94, 95, 96
97, 98, 99, 100, 101, 102, 103, 104, 105, 106, 107, 108
109, 110, 111, 112, 113, 114, 115, 116, 117, 118, 119, 120
121, 122, 123, 124, 125, 126, 127, 128, 837, 838, 839, 840
842, 845, 847, 848, 849, 850, 851, 852, 853, 854, 855, 856
857, 858, 859, 860, 861, 862, 863, 864, 865, 866, 867, 868
869, 870, 871, 872, 873, 874, 875, 876, 877, 878, 879, 880
881, 882, 883, 884, 885, 886, 887, 888, 889, 890, 891, 892
893, 894, 895, 896, 897, 898, 899, 900, 901, 902, 903, 904
905, 906, 907, 908, 909, 910, 911, 912, 913, 914, 915, 916
917, 918, 919, 920, 921, 922, 923, 924, 925, 926, 927, 928
929, 930, 931, 932, 933, 934, 935, 936, 937, 938, 939, 940
941, 942, 943, 944, 945, 946, 947, 948, 949, 950, 951, 952
953, 954, 955, 956, 957, 958, 959, 960, 961, 962, 963, 964
965, 966, 967, 968, 969, 970, 971, 972, 973, 974, 975, 976
977, 978, 979, 980, 981, 982, 983, 984, 985, 986, 987, 988
989, 990, 991, 992, 993, 994, 995, 996, 997, 998, 999, 1000
1001, 1002, 1003, 1004, 1005, 1006, 1007, 1008, 1009, 1010, 1011, 1012
1013, 1014, 1015, 1016, 1017, 1018, 1019, 1020, 1021, 1022, 1023, 1024
1025, 1026, 1027, 1028, 1029, 1030, 1031, 1032, 1033, 1034, 1035, 1036
1037, 1038, 1039, 1040, 1041, 1042, 1043, 1457, 1458, 1460, 1462, 1463
1464, 1465, 1466, 1467, 1468, 1469, 1470, 1471, 1472, 1473, 1474, 1475
1476, 1477, 1478, 1479, 1480, 1481, 1482, 1483, 1484, 1485, 1486, 1487
1488, 1489, 1490, 1491, 1492, 1493, 1494, 1495, 1496, 1497, 1498, 1499
1500, 1501, 1502, 1503, 1504, 1505, 1506, 1507, 1508, 1509, 1510, 1511
1512, 1513, 1514, 1515, 1516, 1517, 1518, 1519, 1520, 1521, 1522, 1523
1524, 1525, 1526, 1527, 1528, 1529, 1530, 1531, 1532, 1533, 1534, 1535
1536, 1537, 1538, 1539, 1540, 1541, 1542, 1543, 1544, 1545, 1546, 1547
1548, 1549, 1550, 1551, 1552, 1553, 1554, 1555, 1556, 1557, 1558, 1559
1560, 1561, 1562, 1563, 1564, 1565, 1566, 1567, 1568, 1569, 1570, 1571
1572, 1573, 1574, 1575, 1576, 1577, 1578, 1579, 1580, 1581, 1582, 1583
1584, 1585, 1586, 1587, 1588, 1589, 1590, 1591, 1592, 1593, 1594, 1595
1596, 1597, 1598, 1599, 1600, 1601, 1602, 1603, 1604, 1605, 1606, 1607
1608, 2022, 2023, 2025, 2027, 2028, 2029, 2030, 2031, 2032, 2033, 2034
2035, 2036, 2037, 2038, 2039, 2040, 2041, 2042, 2043, 2044, 2045, 2046
2047, 2048, 2049, 2050, 2051, 2052, 2053, 2054, 2055, 2056, 2057, 2058
2059, 2060, 2061, 2062, 2063, 2064, 2065, 2066, 2067, 2068, 2069, 2070
2071, 2072, 2073, 2074, 2075, 2076, 2077, 2078, 2079, 2080, 2081, 2082
2083, 2084, 2085, 2086, 2087, 2088, 2089, 2090, 2091, 2092, 2093, 2094
2095, 2096, 2097, 2098, 2099, 2100, 2101, 2102, 2103, 2104, 2105, 2106
2107, 2108, 2109, 2110, 2111, 2112, 2113, 2114, 2115, 2116, 2117, 2118
2119, 2120, 2121, 2122, 2123, 2124, 2125, 2126, 2127, 2128, 2129, 2130
2131, 2132, 2133, 2134, 2135, 2136, 2137, 2138, 2139, 2140, 2141, 2142
2143, 2144, 2145, 2146, 2147, 2148, 2149, 2150, 2151, 2152, 2153, 2154
2155, 2156, 2157, 2158, 2159, 2160, 2161, 2162, 2163, 2164, 2165, 2166
2167, 2168, 2169, 2170, 2171, 2172, 2173, 2587, 2588, 2590, 2592, 2593
2594, 2595, 2596, 2597, 2598, 2599, 2600, 2601, 2602, 2603, 2604, 2605
2606, 2607, 2608, 2609, 2610, 2611, 2612, 2613, 2614, 2615, 2616, 2617
2618, 2619, 2620, 2621, 2622, 2623, 2624, 2625, 2626, 2627, 2628, 2629
2630, 2631, 2632, 2633, 2634, 2635, 2636, 2637, 2638, 2639, 2640, 2641
2642, 2643, 2644, 2645, 2646, 2647, 2648, 2649, 2650, 2651, 2652, 2653
2654, 2655, 2656, 2657, 2658, 2659, 2660, 2661, 2662, 2663
*NSET, NSET=SUPA
2125, 2126, 2128
*NSET, NSET=SUPB
2629, 2630, 2632
*NSET, NSET=NTOP
2099, 2100, 2103, 2111, 2113, 2118, 2120, 2125, 2127, 2132, 2134, 2139
2141, 2146, 2148, 2153, 2155, 2160, 2162, 2167, 2169, 2174, 2176, 2181
2183, 2188, 2190, 2195, 2197, 2202, 2204, 2209, 2211, 2216, 2218, 2223
2225, 2230, 2232, 2237, 2239, 2244, 2246, 2251, 2253, 2258, 2260, 2265
2267, 2272, 2274, 2279, 2281, 2286, 2288, 2293, 2295, 2300, 2302, 2307
2309, 2314, 2316, 2321, 2323, 2328, 2330, 2335, 2337, 2342, 2344, 2349
2351, 2356, 2358, 2363, 2365, 2370, 2372, 2377, 2379, 2384, 2386, 2391
2393, 2398, 2400, 2405, 2407, 2412, 2414, 2419, 2421, 2426, 2428, 2433
2435, 2440, 2442, 2447, 2449, 2454, 2456, 2461, 2463, 2468, 2470, 2475
2477, 2482, 2484, 2489, 2491, 2496, 2498, 2503, 2505, 2510, 2512, 2517
2519, 2524, 2526, 2531, 2533, 2538, 2540, 2545, 2547, 2552, 2554, 2559
2561, 2566, 2568, 2573, 2575, 2580, 2582, 2587, 2589, 2594, 2596, 2601
2603, 2608, 2610, 2615, 2617, 2622, 2624, 2629, 2631, 2636, 2638, 2643
2645, 2650, 2652, 2657, 2659
*ELSET, ELSET=ETOPL
241, 242, 243, 244, 245, 246, 247, 248, 249, 250, 251, 252
253, 254, 255, 256, 257, 258, 259, 260, 261, 262, 263, 264
265, 266, 267, 268, 269, 270, 271, 272, 273, 274, 275, 276
277, 278, 279, 280, 281, 282, 283, 284, 285, 286, 287, 288
289, 290, 291, 292, 293, 294, 295, 296, 297, 298, 299, 300
301, 302, 303, 304, 305, 306, 307, 308, 309, 310, 311, 312
313, 314, 315, 316, 317, 318, 319, 320
*SURFACE, NAME=SSLAVE, TYPE=ELEMENT
ETOPL, S2
*SURFACE, NAME=SMASTER, TYPE=ELEMENT
321, S1
322, S1
323, S1
324, S1
325, S1
326, S1
327, S1
328, S1
329, S1
330, S1
331, S1
332, S1
333, S1
334, S1
335, S1
336, S1
337, S1
338, S1
339, S1
340, S1
341, S1
342, S1
343, S1
344, S1
345, S1
346, S1
347, S1
348, S1
349, S1
350, S1
351, S1
352, S1
353, S1
354, S1
355, S1
356, S1
357, S1
358, S1
359, S1
360, S1
361, S1
362, S1
363, S1
364, S1
365, S1
366, S1
367, S1
368, S1
369, S1
370, S1
371, S1
372, S1
373, S1
374, S1
375, S1
376, S1
377, S1
378, S1
379, S1
380, S1
381, S1
382, S1
383, S1
384, S1
385, S1
386, S1
387, S1
388, S1
389, S1
390, S1
391, S1
392, S1
393, S1
394, S1
395, S1
396, S1
397, S1
398, S1
399, S1
400, S1
401, S1
402, S1
403, S1
404, S1
405, S1
406, S1
407, S1
408, S1
409, S1
410, S1
411, S1
412, S1
413, S1
414, S1
415, S1
416, S1
417, S1
418, S1
419, S1
420, S1
421, S1
422, S1
423, S1
424, S1
425, S1
426, S1
427, S1
428, S1
429, S1
430, S1
431, S1
432, S1
433, S1
434, S1
435, S1
436, S1
437, S1
438, S1
439, S1
440, S1
441, S1
442, S1
443, S1
444, S1
445, S1
446, S1
447, S1
448, S1
449, S1
450, S1
451, S1
452, S1
453, S1
454, S1
455, S1
456, S1
457, S1
458, S1
459, S1
460, S1
461, S1
462, S1
463, S1
464, S1
465, S1
466, S1
467, S1
468, S1
469, S1
470, S1
471, S1
472, S1
473, S1
474, S1
475, S1
476, S1
477, S1
478, S1
479, S1
480, S1
481, S1
482, S1
483, S1
484, S1
485, S1
486, S1
487, S1
488, S1
489, S1
490, S1
491, S1
492, S1
493, S1
494, S1
495, S1
496, S1
497, S1
498, S1
499, S1
500, S1
501, S1
502, S1
503, S1
504, S1
505, S1
506, S1
507, S1
508, S1
509, S1
510, S1
511, S1
512, S1
513, S1
514, S1
515, S1
516, S1
517, S1
518, S1
519, S1
520, S1
*MATERIAL, NAME=AL
*ELASTIC
70000, 0.33
*PLASTIC
100, 0
102.005739, 0.001
103.986239, 0.002
105.94186, 0.003
107.872956, 0.004
109.779878, 0.005
111.662972, 0.006
113.522577, 0.007
115.359028, 0.008
117.172657, 0.009
118.963788, 0.01
120.732743, 0.011
122.479839, 0.012
124.205387, 0.013
125.909695, 0.014
127.593067, 0.015
129.255801, 0.016
130.898192, 0.017
132.52053, 0.018
134.123101, 0.019
135.706188, 0.02
137.270069, 0.021
138.815018, 0.022
140.341305, 0.023
141.849196, 0.024
143.338954, 0.025
144.810839, 0.026
146.265105, 0.027
147.702003, 0.028
149.121781, 0.029
150.524685, 0.03
151.910955, 0.031
153.280827, 0.032
154.634537, 0.033
155.972315, 0.034
157.294389, 0.035
158.600982, 0.036
159.892316, 0.037
161.168608, 0.038
162.430073, 0.039
163.676923, 0.04
164.909367, 0.041
166.127609, 0.042
167.331854, 0.043
168.5223, 0.044
169.699144, 0.045
170.862581, 0.046
172.012803, 0.047
173.149997, 0.048
174.27435, 0.049
175.386045, 0.05
176.485262, 0.051
177.57218, 0.052
178.646975, 0.053
179.70982, 0.054
180.760884, 0.055
181.800336, 0.056
182.828343, 0.057
183.845067, 0.058
184.850669, 0.059
185.845308, 0.06
186.829141, 0.061
187.802322, 0.062
188.765003, 0.063
189.717334, 0.064
190.659462, 0.065
191.591533, 0.066
192.513692, 0.067
193.426078, 0.068
194.328833, 0.069
195.222092, 0.07
196.105993, 0.071
196.980668, 0.072
197.846249, 0.073
198.702866, 0.074
199.550646, 0.075
200.389717, 0.076
201.220202, 0.077
202.042224, 0.078
202.855904, 0.079
203.661361, 0.08
204.458711, 0.081
205.248072, 0.082
206.029556, 0.083
206.803277, 0.084
207.569345, 0.085
208.32787, 0.086
209.078958, 0.087
209.822717, 0.088
210.559251, 0.089
211.288663, 0.09
212.011054, 0.091
212.726526, 0.092
213.435176, 0.093
214.137102, 0.094
214.8324, 0.095
215.521165, 0.096
216.20349, 0.097
216.879466, 0.098
217.549185, 0.099
218.212736, 0.1
218.870207, 0.101
219.521684, 0.102
220.167254, 0.103
220.807, 0.104
221.441005, 0.105
222.069352, 0.106
222.692122, 0.107
223.309393, 0.108
223.921245, 0.109
224.527755, 0.11
225.128999, 0.111
225.725052, 0.112
226.315989, 0.113
226.901882, 0.114
227.482803, 0.115
228.058823, 0.116
228.630013, 0.117
229.196441, 0.118
229.758176, 0.119
230.315283, 0.12
230.86783, 0.121
231.415882, 0.122
231.959501, 0.123
232.498753, 0.124
233.033699, 0.125
233.5644, 0.126
234.090918, 0.127
234.613311, 0.128
235.13164, 0.129
235.645961, 0.13
236.156332, 0.131
236.66281, 0.132
237.16545, 0.133
237.664306, 0.134
238.159434, 0.135
238.650885, 0.136
239.138713, 0.137
239.622969, 0.138
240.103704, 0.139
240.580969, 0.14
241.054813, 0.141
241.525284, 0.142
241.992432, 0.143
242.456303, 0.144
242.916944, 0.145
243.374402, 0.146
243.828721, 0.147
244.279947, 0.148
244.728123, 0.149
245.173294, 0.15
245.615502, 0.151
246.054789, 0.152
246.491198, 0.153
246.924768, 0.154
247.355542, 0.155
247.783558, 0.156
248.208856, 0.157
248.631475, 0.158
249.051453, 0.159
249.468828, 0.16
249.883636, 0.161
250.295915, 0.162
250.705701, 0.163
251.113029, 0.164
251.517935, 0.165
251.920452, 0.166
252.320616, 0.167
252.718459, 0.168
253.114014, 0.169
253.507316, 0.17
253.898394, 0.171
254.287282, 0.172
254.674011, 0.173
255.058611, 0.174
255.441112, 0.175
255.821546, 0.176
256.19994, 0.177
256.576325, 0.178
256.95073, 0.179
257.323181, 0.18
257.693707, 0.181
258.062337, 0.182
258.429096, 0.183
258.794011, 0.184
259.157109, 0.185
259.518416, 0.186
259.877957, 0.187
260.235758, 0.188
260.591843, 0.189
260.946237, 0.19
261.298963, 0.191
261.650047, 0.192
261.999511, 0.193
262.347378, 0.194
262.693671, 0.195
263.038413, 0.196
263.381625, 0.197
263.72333, 0.198
264.063549, 0.199
264.402304, 0.2
264.739614, 0.201
265.075502, 0.202
265.409986, 0.203
265.743088, 0.204
266.074827, 0.205
266.405222, 0.206
266.734292, 0.207
267.062057, 0.208
267.388535, 0.209
267.713744, 0.21
268.037703, 0.211
268.36043, 0.212
268.681941, 0.213
269.002255, 0.214
269.321388, 0.215
269.639358, 0.216
269.95618, 0.217
270.271872, 0.218
270.586449, 0.219
270.899927, 0.22
271.212323, 0.221
271.523651, 0.222
271.833926, 0.223
272.143164, 0.224
272.45138, 0.225
272.758588, 0.226
273.064803, 0.227
273.370038, 0.228
273.674308, 0.229
273.977626, 0.23
274.280007, 0.231
274.581462, 0.232
274.882007, 0.233
275.181653, 0.234
275.480414, 0.235
275.778301, 0.236
276.075328, 0.237
276.371508, 0.238
276.666851, 0.239
276.961369, 0.24
277.255076, 0.241
277.547982, 0.242
277.840098, 0.243
278.131437, 0.244
278.422008, 0.245
278.711824, 0.246
279.000894, 0.247
279.28923, 0.248
279.576841, 0.249
279.863739, 0.25
280.149933, 0.251
280.435434, 0.252
280.720251, 0.253
281.004395, 0.254
281.287874, 0.255
281.570698, 0.256
281.852877, 0.257
282.13442, 0.258
282.415335, 0.259
282.695633, 0.26
282.975321, 0.261
283.254408, 0.262
283.532904, 0.263
283.810815, 0.264
284.088152, 0.265
284.364921, 0.266
284.641132, 0.267
284.916791, 0.268
285.191907, 0.269
285.466488, 0.27
285.740541, 0.271
286.014074, 0.272
286.287094, 0.273
286.559609, 0.274
286.831626, 0.275
287.103151, 0.276
287.374192, 0.277
287.644756, 0.278
287.91485, 0.279
288.18448, 0.28
288.453653, 0.281
288.722375, 0.282
288.990653, 0.283
289.258493, 0.284
289.525902, 0.285
289.792886, 0.286
290.05945, 0.287
290.325601, 0.288
290.591345, 0.289
290.856687, 0.29
291.121633, 0.291
291.386189, 0.292
291.65036, 0.293
291.914152, 0.294
292.17757, 0.295
292.44062, 0.296
292.703307, 0.297
292.965636, 0.298
293.227612, 0.299
293.48924, 0.3
296.087451, 0.31
298.655918, 0.32
301.198624, 0.33
303.71902, 0.34
306.220093, 0.35
308.70443, 0.36
311.174273, 0.37
313.631564, 0.38
316.077982, 0.39
318.514984, 0.4
320.943831, 0.41
323.365615, 0.42
325.781282, 0.43
328.191651, 0.44
330.597432, 0.45
332.999239, 0.46
335.397604, 0.47
337.792988, 0.48
340.18579, 0.49
342.576356, 0.5
344.964986, 0.51
347.351939, 0.52
349.737439, 0.53
352.121681, 0.54
354.504834, 0.55
356.887043, 0.56
359.268435, 0.57
361.649118, 0.58
364.029189, 0.59
366.408729, 0.6
368.787809, 0.61
371.166491, 0.62
373.544827, 0.63
375.922866, 0.64
378.300645, 0.65
380.6782, 0.66
383.055561, 0.67
385.432754, 0.68
387.809802, 0.69
390.186723, 0.7
392.563536, 0.71
394.940253, 0.72
397.316889, 0.73
399.693454, 0.74
402.069957, 0.75
404.446407, 0.76
406.822811, 0.77
409.199176, 0.78
411.575505, 0.79
413.951805, 0.8
416.328079, 0.81
418.70433, 0.82
421.080562, 0.83
423.456777, 0.84
425.832977, 0.85
428.209165, 0.86
430.585342, 0.87
432.961509, 0.88
435.337668, 0.89
437.71382, 0.9
440.089966, 0.91
442.466107, 0.92
444.842243, 0.93
447.218375, 0.94
449.594503, 0.95
451.970629, 0.96
454.346751, 0.97
456.722872, 0.98
459.098991, 0.99
461.475108, 1
463.851223, 1.01
466.227337, 1.02
468.603451, 1.03
470.979563, 1.04
473.355674, 1.05
475.731785, 1.06
478.107895, 1.07
480.484004, 1.08
482.860113, 1.09
485.236222, 1.1
487.61233, 1.11
489.988438, 1.12
492.364546, 1.13
494.740654, 1.14
497.116761, 1.15
499.492868, 1.16
501.868975, 1.17
504.245082, 1.18
506.621189, 1.19
508.997295, 1.2
511.373402, 1.21
513.749508, 1.22
516.125615, 1.23
518.501721, 1.24
520.877828, 1.25
523.253934, 1.26
525.63004, 1.27
528.006146, 1.28
530.382253, 1.29
532.758359, 1.3
535.134465, 1.31
537.510571, 1.32
539.886677, 1.33
542.262783, 1.34
544.63889, 1.35
547.014996, 1.36
549.391102, 1.37
551.767208, 1.38
554.143314, 1.39
556.51942, 1.4
558.895526, 1.41
561.271632, 1.42
563.647738, 1.43
566.023844, 1.44
568.399951, 1.45
570.776057, 1.46
573.152163, 1.47
575.528269, 1.48
577.904375, 1.49
580.280481, 1.5
582.656587, 1.51
585.032693, 1.52
587.408799, 1.53
589.784905, 1.54
592.161011, 1.55
594.537117, 1.56
596.913223, 1.57
599.289329, 1.58
601.665435, 1.59
604.041541, 1.6
606.417647, 1.61
608.793754, 1.62
611.16986, 1.63
613.545966, 1.64
615.922072, 1.65
618.298178, 1.66
620.674284, 1.67
623.05039, 1.68
625.426496, 1.69
627.802602, 1.7
630.178708, 1.71
632.554814, 1.72
634.93092, 1.73
637.307026, 1.74
639.683132, 1.75
642.059238, 1.76
644.435344, 1.77
646.81145, 1.78
649.187556, 1.79
651.563662, 1.8
653.939769, 1.81
656.315875, 1.82
658.691981, 1.83
661.068087, 1.84
663.444193, 1.85
665.820299, 1.86
668.196405, 1.87
670.572511, 1.88
672.948617, 1.89
675.324723, 1.9
677.700829, 1.91
680.076935, 1.92
682.453041, 1.93
684.829147, 1.94
687.205253, 1.95
689.581359, 1.96
691.957465, 1.97
694.333571, 1.98
696.709677, 1.99
699.085784, 2
701.46189, 2.01
703.837996, 2.02
706.214102, 2.03
708.590208, 2.04
710.966314, 2.05
713.34242, 2.06
715.718526, 2.07
718.094632, 2.08
720.470738, 2.09
722.846844, 2.1
725.22295, 2.11
727.599056, 2.12
729.975162, 2.13
732.351268, 2.14
734.727374, 2.15
737.10348, 2.16
739.479586, 2.17
741.855693, 2.18
744.231799, 2.19
746.607905, 2.2
748.984011, 2.21
751.360117, 2.22
753.736223, 2.23
756.112329, 2.24
758.488435, 2.25
760.864541, 2.26
763.240647, 2.27
765.616753, 2.28
767.992859, 2.29
770.368965, 2.3
772.745071, 2.31
775.121177, 2.32
777.497283, 2.33
779.873389, 2.34
782.249495, 2.35
784.625601, 2.36
787.001708, 2.37
789.377814, 2.38
791.75392, 2.39
794.130026, 2.4
796.506132, 2.41
798.882238, 2.42
801.258344, 2.43
803.63445, 2.44
806.010556, 2.45
808.386662, 2.46
810.762768, 2.47
813.138874, 2.48
815.51498, 2.49
817.891086, 2.5
820.267192, 2.51
822.643298, 2.52
825.019404, 2.53
827.39551, 2.54
829.771616, 2.55
832.147723, 2.56
834.523829, 2.57
836.899935, 2.58
839.276041, 2.59
841.652147, 2.6
844.028253, 2.61
846.404359, 2.62
848.780465, 2.63
851.156571, 2.64
853.532677, 2.65
855.908783, 2.66
858.284889, 2.67
860.660995, 2.68
863.037101, 2.69
865.413207, 2.7
867.789313, 2.71
870.165419, 2.72
872.541525, 2.73
874.917631, 2.74
877.293738, 2.75
879.669844, 2.76
882.04595, 2.77
884.422056, 2.78
886.798162, 2.79
889.174268, 2.8
891.550374, 2.81
893.92648, 2.82
896.302586, 2.83
898.678692, 2.84
901.054798, 2.85
903.430904, 2.86
905.80701, 2.87
908.183116, 2.88
910.559222, 2.89
912.935328, 2.9
915.311434, 2.91
917.68754, 2.92
920.063646, 2.93
922.439753, 2.94
924.815859, 2.95
927.191965, 2.96
929.568071, 2.97
931.944177, 2.98
934.320283, 2.99
936.696389, 3

*MATERIAL, NAME=STEEL
*ELASTIC
210000., 0.3
*SOLID SECTION, ELSET=SHEET, MATERIAL=AL
*SOLID SECTION, ELSET=TOOL, MATERIAL=STEEL
*SURFACE INTERACTION, NAME=SI
*SURFACE BEHAVIOR, PRESSURE-OVERCLOSURE=LINEAR
1.4e+06, 0.01
*FRICTION
0.1, 1.4e+06
*CONTACT PAIR, INTERACTION=SI, TYPE=NODE TO SURFACE
SSLAVE, SMASTER
*STEP, NLGEOM, INC=100000
*STATIC
0.025, 1.0, 2.5e-06, 0.025
*BOUNDARY
NSHEET, 2, 2, 0.0
CLAMP, 1, 1, 0.0
CLAMP, 3, 3, 0.0
*BOUNDARY
PUNCH, 1, 2, 0.0
PUNCH, 3, 3, -4.0
*NODE PRINT, NSET=PUNCH, TOTALS=ONLY
RF
*NODE PRINT, NSET=NTOP
U
*END STEP
*STEP, NLGEOM, INC=100000
*STATIC
0.05, 1.0, 1e-7, 0.05
*MODEL CHANGE, TYPE=CONTACT PAIR, REMOVE
SSLAVE, SMASTER
*BOUNDARY
NSHEET, 2, 2, 0.0
CLAMP, 1, 1, 0.0
CLAMP, 3, 3, 0.0
*BOUNDARY
PUNCH, 1, 2, 0.0
PUNCH, 3, 3, -4.0
*NODE PRINT, NSET=PUNCH, TOTALS=ONLY
RF
*NODE PRINT, NSET=NTOP
U
*END STEP
*STEP, NLGEOM, INC=100000
*STATIC
0.05, 1.0, 1e-7, 0.05
*BOUNDARY, OP=NEW
NSHEET, 2, 2, 0.0
PUNCH, 1, 2, 0.0
PUNCH, 3, 3, -4.0
SUPA, 1, 1, 0.0
SUPA, 3, 3, 0.0
SUPB, 3, 3, 0.0
*NODE PRINT, NSET=PUNCH, TOTALS=ONLY
RF
*NODE PRINT, NSET=NTOP
U
*END STEP
