*NODE, NSET=NALL
1, -0.55, -0.55, 0
2, -0.5225, -0.55, 0
3, -0.495, -0.55, 0
4, -0.4675, -0.55, 0
5, -0.44, -0.55, 0
6, -0.4125, -0.55, 0
7, -0.385, -0.55, 0
8, -0.3575, -0.55, 0
9, -0.33, -0.55, 0
10, -0.3025, -0.55, 0
11, -0.275, -0.55, 0
12, -0.2475, -0.55, 0
13, -0.22, -0.55, 0
14, -0.1925, -0.55, 0
15, -0.165, -0.55, 0
16, -0.1375, -0.55, 0
17, -0.11, -0.55, 0
18, -0.0825, -0.55, 0
19, -0.055, -0.55, 0
20, -0.0275, -0.55, 0
21, 0, -0.55, 0
22, 0.0275, -0.55, 0
23, 0.055, -0.55, 0
24, 0.0825, -0.55, 0
25, 0.11, -0.55, 0
26, 0.1375, -0.55, 0
27, 0.165, -0.55, 0
28, 0.1925, -0.55, 0
29, 0.22, -0.55, 0
30, 0.2475, -0.55, 0
31, 0.275, -0.55, 0
32, 0.3025, -0.55, 0
33, 0.33, -0.55, 0
34, 0.3575, -0.55, 0
35, 0.385, -0.55, 0
36, 0.4125, -0.55, 0
37, 0.44, -0.55, 0
38, 0.4675, -0.55, 0
39, 0.495, -0.55, 0
40, 0.5225, -0.55, 0
41, 0.55, -0.55, 0
42, -0.55, -0.5225, 0
43, -0.5225, -0.5225, 0
44, -0.495, -0.5225, 0
45, -0.4675, -0.5225, 0
46, -0.44, -0.5225, 0
47, -0.4125, -0.5225, 0
48, -0.385, -0.5225, 0
49, -0.3575, -0.5225, 0
50, -0.33, -0.5225, 0
51, -0.3025, -0.5225, 0
52, -0.275, -0.5225, 0
53, -0.2475, -0.5225, 0
54, -0.22, -0.5225, 0
55, -0.1925, -0.5225, 0
56, -0.165, -0.5225, 0
57, -0.1375, -0.5225, 0
58, -0.11, -0.5225, 0
59, -0.0825, -0.5225, 0
60, -0.055, -0.5225, 0
61, -0.0275, -0.5225, 0
62, 0, -0.5225, 0
63, 0.0275, -0.5225, 0
64, 0.055, -0.5225, 0
65, 0.0825, -0.5225, 0
66, 0.11, -0.5225, 0
67, 0.1375, -0.5225, 0
68, 0.165, -0.5225, 0
69, 0.1925, -0.5225, 0
70, 0.22, -0.5225, 0
71, 0.2475, -0.5225, 0
72, 0.275, -0.5225, 0
73, 0.3025, -0.5225, 0
74, 0.33, -0.5225, 0
75, 0.3575, -0.5225, 0
76, 0.385, -0.5225, 0
77, 0.4125, -0.5225, 0
78, 0.44, -0.5225, 0
79, 0.4675, -0.5225, 0
80, 0.495, -0.5225, 0
81, 0.5225, -0.5225, 0
82, 0.55, -0.5225, 0
83, -0.55, -0.495, 0
84, -0.5225, -0.495, 0
85, -0.495, -0.495, 0
86, -0.4675, -0.495, 0
87, -0.44, -0.495, 0
88, -0.4125, -0.495, 0
89, -0.385, -0.495, 0
90, -0.3575, -0.495, 0
91, -0.33, -0.495, 0
92, -0.3025, -0.495, 0
93, -0.275, -0.495, 0
94, -0.2475, -0.495, 0
95, -0.22, -0.495, 0
96, -0.1925, -0.495, 0
97, -0.165, -0.495, 0
98, -0.1375, -0.495, 0
99, -0.11, -0.495, 0
100, -0.0825, -0.495, 0
101, -0.055, -0.495, 0
102, -0.0275, -0.495, 0
103, 0, -0.495, 0
104, 0.0275, -0.495, 0
105, 0.055, -0.495, 0
106, 0.0825, -0.495, 0
107, 0.11, -0.495, 0
108, 0.1375, -0.495, 0
109, 0.165, -0.495, 0
110, 0.1925, -0.495, 0
111, 0.22, -0.495, 0
112, 0.2475, -0.495, 0
113, 0.275, -0.495, 0
114, 0.3025, -0.495, 0
115, 0.33, -0.495, 0
116, 0.3575, -0.495, 0
117, 0.385, -0.495, 0
118, 0.4125, -0.495, 0
119, 0.44, -0.495, 0
120, 0.4675, -0.495, 0
121, 0.495, -0.495, 0
122, 0.5225, -0.495, 0
123, 0.55, -0.495, 0
124, -0.55, -0.4675, 0
125, -0.5225, -0.4675, 0
126, -0.495, -0.4675, 0
127, -0.4675, -0.4675, 0
128, -0.44, -0.4675, 0
129, -0.4125, -0.4675, 0
130, -0.385, -0.4675, 0
131, -0.3575, -0.4675, 0
132, -0.33, -0.4675, 0
133, -0.3025, -0.4675, 0
134, -0.275, -0.4675, 0
135, -0.2475, -0.4675, 0
136, -0.22, -0.4675, 0
137, -0.1925, -0.4675, 0
138, -0.165, -0.4675, 0
139, -0.1375, -0.4675, 0
140, -0.11, -0.4675, 0
141, -0.0825, -0.4675, 0
142, -0.055, -0.4675, 0
143, -0.0275, -0.4675, 0
144, 0, -0.4675, 0
145, 0.0275, -0.4675, 0
146, 0.055, -0.4675, 0
147, 0.0825, -0.4675, 0
148, 0.11, -0.4675, 0
149, 0.1375, -0.4675, 0
150, 0.165, -0.4675, 0
151, 0.1925, -0.4675, 0
152, 0.22, -0.4675, 0
153, 0.2475, -0.4675, 0
154, 0.275, -0.4675, 0
155, 0.3025, -0.4675, 0
156, 0.33, -0.4675, 0
157, 0.3575, -0.4675, 0
158, 0.385, -0.4675, 0
159, 0.4125, -0.4675, 0
160, 0.44, -0.4675, 0
161, 0.4675, -0.4675, 0
162, 0.495, -0.4675, 0
163, 0.5225, -0.4675, 0
164, 0.55, -0.4675, 0
165, -0.55, -0.44, 0
166, -0.5225, -0.44, 0
167, -0.495, -0.44, 0
168, -0.4675, -0.44, 0
169, -0.44, -0.44, 0
170, -0.4125, -0.44, 0
171, -0.385, -0.44, 0
172, -0.3575, -0.44, 0
173, -0.33, -0.44, 0
174, -0.3025, -0.44, 0
175, -0.275, -0.44, 0
176, -0.2475, -0.44, 0
177, -0.22, -0.44, 0
178, -0.1925, -0.44, 0
179, -0.165, -0.44, 0
180, -0.1375, -0.44, 0
181, -0.11, -0.44, 0
182, -0.0825, -0.44, 0
183, -0.055, -0.44, 0
184, -0.0275, -0.44, 0
185, 0, -0.44, 0
186, 0.0275, -0.44, 0
187, 0.055, -0.44, 0
188, 0.0825, -0.44, 0
189, 0.11, -0.44, 0
190, 0.1375, -0.44, 0
191, 0.165, -0.44, 0
192, 0.1925, -0.44, 0
193, 0.22, -0.44, 0
194, 0.2475, -0.44, 0
195, 0.275, -0.44, 0
196, 0.3025, -0.44, 0
197, 0.33, -0.44, 0
198, 0.3575, -0.44, 0
199, 0.385, -0.44, 0
200, 0.4125, -0.44, 0
201, 0.44, -0.44, 0
202, 0.4675, -0.44, 0
203, 0.495, -0.44, 0
204, 0.5225, -0.44, 0
205, 0.55, -0.44, 0
206, -0.55, -0.4125, 0
207, -0.5225, -0.4125, 0
208, -0.495, -0.4125, 0
209, -0.4675, -0.4125, 0
210, -0.44, -0.4125, 0
211, -0.4125, -0.4125, 0
212, -0.385, -0.4125, 0
213, -0.3575, -0.4125, 0
214, -0.33, -0.4125, 0
215, -0.3025, -0.4125, 0
216, -0.275, -0.4125, 0
217, -0.2475, -0.4125, 0
218, -0.22, -0.4125, 0
219, -0.1925, -0.4125, 0
220, -0.165, -0.4125, 0
221, -0.1375, -0.4125, 0
222, -0.11, -0.4125, 0
223, -0.0825, -0.4125, 0
224, -0.055, -0.4125, 0
225, -0.0275, -0.4125, 0
226, 0, -0.4125, 0
227, 0.0275, -0.4125, 0
228, 0.055, -0.4125, 0
229, 0.0825, -0.4125, 0
230, 0.11, -0.4125, 0
231, 0.1375, -0.4125, 0
232, 0.165, -0.4125, 0
233, 0.1925, -0.4125, 0
234, 0.22, -0.4125, 0
235, 0.2475, -0.4125, 0
236, 0.275, -0.4125, 0
237, 0.3025, -0.4125, 0
238, 0.33, -0.4125, 0
239, 0.3575, -0.4125, 0
240, 0.385, -0.4125, 0
241, 0.4125, -0.4125, 0
242, 0.44, -0.4125, 0
243, 0.4675, -0.4125, 0
244, 0.495, -0.4125, 0
245, 0.5225, -0.4125, 0
246, 0.55, -0.4125, 0
247, -0.55, -0.385, 0
248, -0.5225, -0.385, 0
249, -0.495, -0.385, 0
250, -0.4675, -0.385, 0
251, -0.44, -0.385, 0
252, -0.4125, -0.385, 0
253, -0.385, -0.385, 0
254, -0.3575, -0.385, 0
255, -0.33, -0.385, 0
256, -0.3025, -0.385, 0
257, -0.275, -0.385, 0
258, -0.2475, -0.385, 0
259, -0.22, -0.385, 0
260, -0.1925, -0.385, 0
261, -0.165, -0.385, 0
262, -0.1375, -0.385, 0
263, -0.11, -0.385, 0
264, -0.0825, -0.385, 0
265, -0.055, -0.385, 0
266, -0.0275, -0.385, 0
267, 0, -0.385, 0
268, 0.0275, -0.385, 0
269, 0.055, -0.385, 0
270, 0.0825, -0.385, 0
271, 0.11, -0.385, 0
272, 0.1375, -0.385, 0
273, 0.165, -0.385, 0
274, 0.1925, -0.385, 0
275, 0.22, -0.385, 0
276, 0.2475, -0.385, 0
277, 0.275, -0.385, 0
278, 0.3025, -0.385, 0
279, 0.33, -0.385, 0
280, 0.3575, -0.385, 0
281, 0.385, -0.385, 0
282, 0.4125, -0.385, 0
283, 0.44, -0.385, 0
284, 0.4675, -0.385, 0
285, 0.495, -0.385, 0
286, 0.5225, -0.385, 0
287, 0.55, -0.385, 0
288, -0.55, -0.3575, 0
289, -0.5225, -0.3575, 0
290, -0.495, -0.3575, 0
291, -0.4675, -0.3575, 0
292, -0.44, -0.3575, 0
293, -0.4125, -0.3575, 0
294, -0.385, -0.3575, 0
295, -0.3575, -0.3575, 0
296, -0.33, -0.3575, 0
297, -0.3025, -0.3575, 0
298, -0.275, -0.3575, 0
299, -0.2475, -0.3575, 0
300, -0.22, -0.3575, 0
301, -0.1925, -0.3575, 0
302, -0.165, -0.3575, 0
303, -0.1375, -0.3575, 0
304, -0.11, -0.3575, 0
305, -0.0825, -0.3575, 0
306, -0.055, -0.3575, 0
307, -0.0275, -0.3575, 0
308, 0, -0.3575, 0
309, 0.0275, -0.3575, 0
310, 0.055, -0.3575, 0
311, 0.0825, -0.3575, 0
312, 0.11, -0.3575, 0
313, 0.1375, -0.3575, 0
314, 0.165, -0.3575, 0
315, 0.1925, -0.3575, 0
316, 0.22, -0.3575, 0
317, 0.2475, -0.3575, 0
318, 0.275, -0.3575, 0
319, 0.3025, -0.3575, 0
320, 0.33, -0.3575, 0
321, 0.3575, -0.3575, 0
322, 0.385, -0.3575, 0
323, 0.4125, -0.3575, 0
324, 0.44, -0.3575, 0
325, 0.4675, -0.3575, 0
326, 0.495, -0.3575, 0
327, 0.5225, -0.3575, 0
328, 0.55, -0.3575, 0
329, -0.55, -0.33, 0
330, -0.5225, -0.33, 0
331, -0.495, -0.33, 0
332, -0.4675, -0.33, 0
333, -0.44, -0.33, 0
334, -0.4125, -0.33, 0
335, -0.385, -0.33, 0
336, -0.3575, -0.33, 0
337, -0.33, -0.33, 0
338, -0.3025, -0.33, 0
339, -0.275, -0.33, 0
340, -0.2475, -0.33, 0
341, -0.22, -0.33, 0
342, -0.1925, -0.33, 0
343, -0.165, -0.33, 0
344, -0.1375, -0.33, 0
345, -0.11, -0.33, 0
346, -0.0825, -0.33, 0
347, -0.055, -0.33, 0
348, -0.0275, -0.33, 0
349, 0, -0.33, 0
350, 0.0275, -0.33, 0
351, 0.055, -0.33, 0
352, 0.0825, -0.33, 0
353, 0.11, -0.33, 0
354, 0.1375, -0.33, 0
355, 0.165, -0.33, 0
356, 0.1925, -0.33, 0
357, 0.22, -0.33, 0
358, 0.2475, -0.33, 0
359, 0.275, -0.33, 0
360, 0.3025, -0.33, 0
361, 0.33, -0.33, 0
362, 0.3575, -0.33, 0
363, 0.385, -0.33, 0
364, 0.4125, -0.33, 0
365, 0.44, -0.33, 0
366, 0.4675, -0.33, 0
367, 0.495, -0.33, 0
368, 0.5225, -0.33, 0
369, 0.55, -0.33, 0
370, -0.55, -0.3025, 0
371, -0.5225, -0.3025, 0
372, -0.495, -0.3025, 0
373, -0.4675, -0.3025, 0
374, -0.44, -0.3025, 0
375, -0.4125, -0.3025, 0
376, -0.385, -0.3025, 0
377, -0.3575, -0.3025, 0
378, -0.33, -0.3025, 0
379, -0.3025, -0.3025, 0
380, -0.275, -0.3025, 0
381, -0.2475, -0.3025, 0
382, -0.22, -0.3025, 0
383, -0.1925, -0.3025, 0
384, -0.165, -0.3025, 0
385, -0.1375, -0.3025, 0
386, -0.11, -0.3025, 0
387, -0.0825, -0.3025, 0
388, -0.055, -0.3025, 0
389, -0.0275, -0.3025, 0
390, 0, -0.3025, 0
391, 0.0275, -0.3025, 0
392, 0.055, -0.3025, 0
393, 0.0825, -0.3025, 0
394, 0.11, -0.3025, 0
395, 0.1375, -0.3025, 0
396, 0.165, -0.3025, 0
397, 0.1925, -0.3025, 0
398, 0.22, -0.3025, 0
399, 0.2475, -0.3025, 0
400, 0.275, -0.3025, 0
401, 0.3025, -0.3025, 0
402, 0.33, -0.3025, 0
403, 0.3575, -0.3025, 0
404, 0.385, -0.3025, 0
405, 0.4125, -0.3025, 0
406, 0.44, -0.3025, 0
407, 0.4675, -0.3025, 0
408, 0.495, -0.3025, 0
409, 0.5225, -0.3025, 0
410, 0.55, -0.3025, 0
411, -0.55, -0.275, 0
412, -0.5225, -0.275, 0
413, -0.495, -0.275, 0
414, -0.4675, -0.275, 0
415, -0.44, -0.275, 0
416, -0.4125, -0.275, 0
417, -0.385, -0.275, 0
418, -0.3575, -0.275, 0
419, -0.33, -0.275, 0
420, -0.3025, -0.275, 0
421, -0.275, -0.275, 0
422, -0.2475, -0.275, 0
423, -0.22, -0.275, 0
424, -0.1925, -0.275, 0
425, -0.165, -0.275, 0
426, -0.1375, -0.275, 0
427, -0.11, -0.275, 0
428, -0.0825, -0.275, 0
429, -0.055, -0.275, 0
430, -0.0275, -0.275, 0
431, 0, -0.275, 0
432, 0.0275, -0.275, 0
433, 0.055, -0.275, 0
434, 0.0825, -0.275, 0
435, 0.11, -0.275, 0
436, 0.1375, -0.275, 0
437, 0.165, -0.275, 0
438, 0.1925, -0.275, 0
439, 0.22, -0.275, 0
440, 0.2475, -0.275, 0
441, 0.275, -0.275, 0
442, 0.3025, -0.275, 0
443, 0.33, -0.275, 0
444, 0.3575, -0.275, 0
445, 0.385, -0.275, 0
446, 0.4125, -0.275, 0
447, 0.44, -0.275, 0
448, 0.4675, -0.275, 0
449, 0.495, -0.275, 0
450, 0.5225, -0.275, 0
451, 0.55, -0.275, 0
452, -0.55, -0.2475, 0
453, -0.5225, -0.2475, 0
454, -0.495, -0.2475, 0
455, -0.4675, -0.2475, 0
456, -0.44, -0.2475, 0
457, -0.4125, -0.2475, 0
458, -0.385, -0.2475, 0
459, -0.3575, -0.2475, 0
460, -0.33, -0.2475, 0
461, -0.3025, -0.2475, 0
462, -0.275, -0.2475, 0
463, -0.2475, -0.2475, 0
464, -0.22, -0.2475, 0
465, -0.1925, -0.2475, 0
466, -0.165, -0.2475, 0
467, -0.1375, -0.2475, 0
468, -0.11, -0.2475, 0
469, -0.0825, -0.2475, 0
470, -0.055, -0.2475, 0
471, -0.0275, -0.2475, 0
472, 0, -0.2475, 0
473, 0.0275, -0.2475, 0
474, 0.055, -0.2475, 0
475, 0.0825, -0.2475, 0
476, 0.11, -0.2475, 0
477, 0.1375, -0.2475, 0
478, 0.165, -0.2475, 0
479, 0.1925, -0.2475, 0
480, 0.22, -0.2475, 0
481, 0.2475, -0.2475, 0
482, 0.275, -0.2475, 0
483, 0.3025, -0.2475, 0
484, 0.33, -0.2475, 0
485, 0.3575, -0.2475, 0
486, 0.385, -0.2475, 0
487, 0.4125, -0.2475, 0
488, 0.44, -0.2475, 0
489, 0.4675, -0.2475, 0
490, 0.495, -0.2475, 0
491, 0.5225, -0.2475, 0
492, 0.55, -0.2475, 0
493, -0.55, -0.22, 0
494, -0.5225, -0.22, 0
495, -0.495, -0.22, 0
496, -0.4675, -0.22, 0
497, -0.44, -0.22, 0
498, -0.4125, -0.22, 0
499, -0.385, -0.22, 0
500, -0.3575, -0.22, 0
501, -0.33, -0.22, 0
502, -0.3025, -0.22, 0
503, -0.275, -0.22, 0
504, -0.2475, -0.22, 0
505, -0.22, -0.22, 0
506, -0.1925, -0.22, 0
507, -0.165, -0.22, 0
508, -0.1375, -0.22, 0
509, -0.11, -0.22, 0
510, -0.0825, -0.22, 0
511, -0.055, -0.22, 0
512, -0.0275, -0.22, 0
513, 0, -0.22, 0
514, 0.0275, -0.22, 0
515, 0.055, -0.22, 0
516, 0.0825, -0.22, 0
517, 0.11, -0.22, 0
518, 0.1375, -0.22, 0
519, 0.165, -0.22, 0
520, 0.1925, -0.22, 0
521, 0.22, -0.22, 0
522, 0.2475, -0.22, 0
523, 0.275, -0.22, 0
524, 0.3025, -0.22, 0
525, 0.33, -0.22, 0
526, 0.3575, -0.22, 0
527, 0.385, -0.22, 0
528, 0.4125, -0.22, 0
529, 0.44, -0.22, 0
530, 0.4675, -0.22, 0
531, 0.495, -0.22, 0
532, 0.5225, -0.22, 0
533, 0.55, -0.22, 0
534, -0.55, -0.1925, 0
535, -0.5225, -0.1925, 0
536, -0.495, -0.1925, 0
537, -0.4675, -0.1925, 0
538, -0.44, -0.1925, 0
539, -0.4125, -0.1925, 0
540, -0.385, -0.1925, 0
541, -0.3575, -0.1925, 0
542, -0.33, -0.1925, 0
543, -0.3025, -0.1925, 0
544, -0.275, -0.1925, 0
545, -0.2475, -0.1925, 0
546, -0.22, -0.1925, 0
547, -0.1925, -0.1925, 0
548, -0.165, -0.1925, 0
549, -0.1375, -0.1925, 0
550, -0.11, -0.1925, 0
551, -0.0825, -0.1925, 0
552, -0.055, -0.1925, 0
553, -0.0275, -0.1925, 0
554, 0, -0.1925, 0
555, 0.0275, -0.1925, 0
556, 0.055, -0.1925, 0
557, 0.0825, -0.1925, 0
558, 0.11, -0.1925, 0
559, 0.1375, -0.1925, 0
560, 0.165, -0.1925, 0
561, 0.1925, -0.1925, 0
562, 0.22, -0.1925, 0
563, 0.2475, -0.1925, 0
564, 0.275, -0.1925, 0
565, 0.3025, -0.1925, 0
566, 0.33, -0.1925, 0
567, 0.3575, -0.1925, 0
568, 0.385, -0.1925, 0
569, 0.4125, -0.1925, 0
570, 0.44, -0.1925, 0
571, 0.4675, -0.1925, 0
572, 0.495, -0.1925, 0
573, 0.5225, -0.1925, 0
574, 0.55, -0.1925, 0
575, -0.55, -0.165, 0
576, -0.5225, -0.165, 0
577, -0.495, -0.165, 0
578, -0.4675, -0.165, 0
579, -0.44, -0.165, 0
580, -0.4125, -0.165, 0
581, -0.385, -0.165, 0
582, -0.3575, -0.165, 0
583, -0.33, -0.165, 0
584, -0.3025, -0.165, 0
585, -0.275, -0.165, 0
586, -0.2475, -0.165, 0
587, -0.22, -0.165, 0
588, -0.1925, -0.165, 0
589, -0.165, -0.165, 0
590, -0.1375, -0.165, 0
591, -0.11, -0.165, 0
592, -0.0825, -0.165, 0
593, -0.055, -0.165, 0
594, -0.0275, -0.165, 0
595, 0, -0.165, 0
596, 0.0275, -0.165, 0
597, 0.055, -0.165, 0
598, 0.0825, -0.165, 0
599, 0.11, -0.165, 0
600, 0.1375, -0.165, 0
601, 0.165, -0.165, 0
602, 0.1925, -0.165, 0
603, 0.22, -0.165, 0
604, 0.2475, -0.165, 0
605, 0.275, -0.165, 0
606, 0.3025, -0.165, 0
607, 0.33, -0.165, 0
608, 0.3575, -0.165, 0
609, 0.385, -0.165, 0
610, 0.4125, -0.165, 0
611, 0.44, -0.165, 0
612, 0.4675, -0.165, 0
613, 0.495, -0.165, 0
614, 0.5225, -0.165, 0
615, 0.55, -0.165, 0
616, -0.55, -0.1375, 0
617, -0.5225, -0.1375, 0
618, -0.495, -0.1375, 0
619, -0.4675, -0.1375, 0
620, -0.44, -0.1375, 0
621, -0.4125, -0.1375, 0
622, -0.385, -0.1375, 0
623, -0.3575, -0.1375, 0
624, -0.33, -0.1375, 0
625, -0.3025, -0.1375, 0
626, -0.275, -0.1375, 0
627, -0.2475, -0.1375, 0
628, -0.22, -0.1375, 0
629, -0.1925, -0.1375, 0
630, -0.165, -0.1375, 0
631, -0.1375, -0.1375, 0
632, -0.11, -0.1375, 0
633, -0.0825, -0.1375, 0
634, -0.055, -0.1375, 0
635, -0.0275, -0.1375, 0
636, 0, -0.1375, 0
637, 0.0275, -0.1375, 0
638, 0.055, -0.1375, 0
639, 0.0825, -0.1375, 0
640, 0.11, -0.1375, 0
641, 0.1375, -0.1375, 0
642, 0.165, -0.1375, 0
643, 0.1925, -0.1375, 0
644, 0.22, -0.1375, 0
645, 0.2475, -0.1375, 0
646, 0.275, -0.1375, 0
647, 0.3025, -0.1375, 0
648, 0.33, -0.1375, 0
649, 0.3575, -0.1375, 0
650, 0.385, -0.1375, 0
651, 0.4125, -0.1375, 0
652, 0.44, -0.1375, 0
653, 0.4675, -0.1375, 0
654, 0.495, -0.1375, 0
655, 0.5225, -0.1375, 0
656, 0.55, -0.1375, 0
657, -0.55, -0.11, 0
658, -0.5225, -0.11, 0
659, -0.495, -0.11, 0
660, -0.4675, -0.11, 0
661, -0.44, -0.11, 0
662, -0.4125, -0.11, 0
663, -0.385, -0.11, 0
664, -0.3575, -0.11, 0
665, -0.33, -0.11, 0
666, -0.3025, -0.11, 0
667, -0.275, -0.11, 0
668, -0.2475, -0.11, 0
669, -0.22, -0.11, 0
670, -0.1925, -0.11, 0
671, -0.165, -0.11, 0
672, -0.1375, -0.11, 0
673, -0.11, -0.11, 0
674, -0.0825, -0.11, 0
675, -0.055, -0.11, 0
676, -0.0275, -0.11, 0
677, 0, -0.11, 0
678, 0.0275, -0.11, 0
679, 0.055, -0.11, 0
680, 0.0825, -0.11, 0
681, 0.11, -0.11, 0
682, 0.1375, -0.11, 0
683, 0.165, -0.11, 0
684, 0.1925, -0.11, 0
685, 0.22, -0.11, 0
686, 0.2475, -0.11, 0
687, 0.275, -0.11, 0
688, 0.3025, -0.11, 0
689, 0.33, -0.11, 0
690, 0.3575, -0.11, 0
691, 0.385, -0.11, 0
692, 0.4125, -0.11, 0
693, 0.44, -0.11, 0
694, 0.4675, -0.11, 0
695, 0.495, -0.11, 0
696, 0.5225, -0.11, 0
697, 0.55, -0.11, 0
698, -0.55, -0.0825, 0
699, -0.5225, -0.0825, 0
700, -0.495, -0.0825, 0
701, -0.4675, -0.0825, 0
702, -0.44, -0.0825, 0
703, -0.4125, -0.0825, 0
704, -0.385, -0.0825, 0
705, -0.3575, -0.0825, 0
706, -0.33, -0.0825, 0
707, -0.3025, -0.0825, 0
708, -0.275, -0.0825, 0
709, -0.2475, -0.0825, 0
710, -0.22, -0.0825, 0
711, -0.1925, -0.0825, 0
712, -0.165, -0.0825, 0
713, -0.1375, -0.0825, 0
714, -0.11, -0.0825, 0
715, -0.0825, -0.0825, 0
716, -0.055, -0.0825, 0
717, -0.0275, -0.0825, 0
718, 0, -0.0825, 0
719, 0.0275, -0.0825, 0
720, 0.055, -0.0825, 0
721, 0.0825, -0.0825, 0
722, 0.11, -0.0825, 0
723, 0.1375, -0.0825, 0
724, 0.165, -0.0825, 0
725, 0.1925, -0.0825, 0
726, 0.22, -0.0825, 0
727, 0.2475, -0.0825, 0
728, 0.275, -0.0825, 0
729, 0.3025, -0.0825, 0
730, 0.33, -0.0825, 0
731, 0.3575, -0.0825, 0
732, 0.385, -0.0825, 0
733, 0.4125, -0.0825, 0
734, 0.44, -0.0825, 0
735, 0.4675, -0.0825, 0
736, 0.495, -0.0825, 0
737, 0.5225, -0.0825, 0
738, 0.55, -0.0825, 0
739, -0.55, -0.055, 0
740, -0.5225, -0.055, 0
741, -0.495, -0.055, 0
742, -0.4675, -0.055, 0
743, -0.44, -0.055, 0
744, -0.4125, -0.055, 0
745, -0.385, -0.055, 0
746, -0.3575, -0.055, 0
747, -0.33, -0.055, 0
748, -0.3025, -0.055, 0
749, -0.275, -0.055, 0
750, -0.2475, -0.055, 0
751, -0.22, -0.055, 0
752, -0.1925, -0.055, 0
753, -0.165, -0.055, 0
754, -0.1375, -0.055, 0
755, -0.11, -0.055, 0
756, -0.0825, -0.055, 0
757, -0.055, -0.055, 0
758, -0.0275, -0.055, 0
759, 0, -0.055, 0
760, 0.0275, -0.055, 0
761, 0.055, -0.055, 0
762, 0.0825, -0.055, 0
763, 0.11, -0.055, 0
764, 0.1375, -0.055, 0
765, 0.165, -0.055, 0
766, 0.1925, -0.055, 0
767, 0.22, -0.055, 0
768, 0.2475, -0.055, 0
769, 0.275, -0.055, 0
770, 0.3025, -0.055, 0
771, 0.33, -0.055, 0
772, 0.3575, -0.055, 0
773, 0.385, -0.055, 0
774, 0.4125, -0.055, 0
775, 0.44, -0.055, 0
776, 0.4675, -0.055, 0
777, 0.495, -0.055, 0
778, 0.5225, -0.055, 0
779, 0.55, -0.055, 0
780, -0.55, -0.0275, 0
781, -0.5225, -0.0275, 0
782, -0.495, -0.0275, 0
783, -0.4675, -0.0275, 0
784, -0.44, -0.0275, 0
785, -0.4125, -0.0275, 0
786, -0.385, -0.0275, 0
787, -0.3575, -0.0275, 0
788, -0.33, -0.0275, 0
789, -0.3025, -0.0275, 0
790, -0.275, -0.0275, 0
791, -0.2475, -0.0275, 0
792, -0.22, -0.0275, 0
793, -0.1925, -0.0275, 0
794, -0.165, -0.0275, 0
795, -0.1375, -0.0275, 0
796, -0.11, -0.0275, 0
797, -0.0825, -0.0275, 0
798, -0.055, -0.0275, 0
799, -0.0275, -0.0275, 0
800, 0, -0.0275, 0
801, 0.0275, -0.0275, 0
802, 0.055, -0.0275, 0
803, 0.0825, -0.0275, 0
804, 0.11, -0.0275, 0
805, 0.1375, -0.0275, 0
806, 0.165, -0.0275, 0
807, 0.1925, -0.0275, 0
808, 0.22, -0.0275, 0
809, 0.2475, -0.0275, 0
810, 0.275, -0.0275, 0
811, 0.3025, -0.0275, 0
812, 0.33, -0.0275, 0
813, 0.3575, -0.0275, 0
814, 0.385, -0.0275, 0
815, 0.4125, -0.0275, 0
816, 0.44, -0.0275, 0
817, 0.4675, -0.0275, 0
818, 0.495, -0.0275, 0
819, 0.5225, -0.0275, 0
820, 0.55, -0.0275, 0
821, -0.55, 0, 0
822, -0.5225, 0, 0
823, -0.495, 0, 0
824, -0.4675, 0, 0
825, -0.44, 0, 0
826, -0.4125, 0, 0
827, -0.385, 0, 0
828, -0.3575, 0, 0
829, -0.33, 0, 0
830, -0.3025, 0, 0
831, -0.275, 0, 0
832, -0.2475, 0, 0
833, -0.22, 0, 0
834, -0.1925, 0, 0
835, -0.165, 0, 0
836, -0.1375, 0, 0
837, -0.11, 0, 0
838, -0.0825, 0, 0
839, -0.055, 0, 0
840, -0.0275, 0, 0
841, 0, 0, 0
842, 0.0275, 0, 0
843, 0.055, 0, 0
844, 0.0825, 0, 0
845, 0.11, 0, 0
846, 0.1375, 0, 0
847, 0.165, 0, 0
848, 0.1925, 0, 0
849, 0.22, 0, 0
850, 0.2475, 0, 0
851, 0.275, 0, 0
852, 0.3025, 0, 0
853, 0.33, 0, 0
854, 0.3575, 0, 0
855, 0.385, 0, 0
856, 0.4125, 0, 0
857, 0.44, 0, 0
858, 0.4675, 0, 0
859, 0.495, 0, 0
860, 0.5225, 0, 0
861, 0.55, 0, 0
862, -0.55, 0.0275, 0
863, -0.5225, 0.0275, 0
864, -0.495, 0.0275, 0
865, -0.4675, 0.0275, 0
866, -0.44, 0.0275, 0
867, -0.4125, 0.0275, 0
868, -0.385, 0.0275, 0
869, -0.3575, 0.0275, 0
870, -0.33, 0.0275, 0
871, -0.3025, 0.0275, 0
872, -0.275, 0.0275, 0
873, -0.2475, 0.0275, 0
874, -0.22, 0.0275, 0
875, -0.1925, 0.0275, 0
876, -0.165, 0.0275, 0
877, -0.1375, 0.0275, 0
878, -0.11, 0.0275, 0
879, -0.0825, 0.0275, 0
880, -0.055, 0.0275, 0
881, -0.0275, 0.0275, 0
882, 0, 0.0275, 0
883, 0.0275, 0.0275, 0
884, 0.055, 0.0275, 0
885, 0.0825, 0.0275, 0
886, 0.11, 0.0275, 0
887, 0.1375, 0.0275, 0
888, 0.165, 0.0275, 0
889, 0.1925, 0.0275, 0
890, 0.22, 0.0275, 0
891, 0.2475, 0.0275, 0
892, 0.275, 0.0275, 0
893, 0.3025, 0.0275, 0
894, 0.33, 0.0275, 0
895, 0.3575, 0.0275, 0
896, 0.385, 0.0275, 0
897, 0.4125, 0.0275, 0
898, 0.44, 0.0275, 0
899, 0.4675, 0.0275, 0
900, 0.495, 0.0275, 0
901, 0.5225, 0.0275, 0
902, 0.55, 0.0275, 0
903, -0.55, 0.055, 0
904, -0.5225, 0.055, 0
905, -0.495, 0.055, 0
906, -0.4675, 0.055, 0
907, -0.44, 0.055, 0
908, -0.4125, 0.055, 0
909, -0.385, 0.055, 0
910, -0.3575, 0.055, 0
911, -0.33, 0.055, 0
912, -0.3025, 0.055, 0
913, -0.275, 0.055, 0
914, -0.2475, 0.055, 0
915, -0.22, 0.055, 0
916, -0.1925, 0.055, 0
917, -0.165, 0.055, 0
918, -0.1375, 0.055, 0
919, -0.11, 0.055, 0
920, -0.0825, 0.055, 0
921, -0.055, 0.055, 0
922, -0.0275, 0.055, 0
923, 0, 0.055, 0
924, 0.0275, 0.055, 0
925, 0.055, 0.055, 0
926, 0.0825, 0.055, 0
927, 0.11, 0.055, 0
928, 0.1375, 0.055, 0
929, 0.165, 0.055, 0
930, 0.1925, 0.055, 0
931, 0.22, 0.055, 0
932, 0.2475, 0.055, 0
933, 0.275, 0.055, 0
934, 0.3025, 0.055, 0
935, 0.33, 0.055, 0
936, 0.3575, 0.055, 0
937, 0.385, 0.055, 0
938, 0.4125, 0.055, 0
939, 0.44, 0.055, 0
940, 0.4675, 0.055, 0
941, 0.495, 0.055, 0
942, 0.5225, 0.055, 0
943, 0.55, 0.055, 0
944, -0.55, 0.0825, 0
945, -0.5225, 0.0825, 0
946, -0.495, 0.0825, 0
947, -0.4675, 0.0825, 0
948, -0.44, 0.0825, 0
949, -0.4125, 0.0825, 0
950, -0.385, 0.0825, 0
951, -0.3575, 0.0825, 0
952, -0.33, 0.0825, 0
953, -0.3025, 0.0825, 0
954, -0.275, 0.0825, 0
955, -0.2475, 0.0825, 0
956, -0.22, 0.0825, 0
957, -0.1925, 0.0825, 0
958, -0.165, 0.0825, 0
959, -0.1375, 0.0825, 0
960, -0.11, 0.0825, 0
961, -0.0825, 0.0825, 0
962, -0.055, 0.0825, 0
963, -0.0275, 0.0825, 0
964, 0, 0.0825, 0
965, 0.0275, 0.0825, 0
966, 0.055, 0.0825, 0
967, 0.0825, 0.0825, 0
968, 0.11, 0.0825, 0
969, 0.1375, 0.0825, 0
970, 0.165, 0.0825, 0
971, 0.1925, 0.0825, 0
972, 0.22, 0.0825, 0
973, 0.2475, 0.0825, 0
974, 0.275, 0.0825, 0
975, 0.3025, 0.0825, 0
976, 0.33, 0.0825, 0
977, 0.3575, 0.0825, 0
978, 0.385, 0.0825, 0
979, 0.4125, 0.0825, 0
980, 0.44, 0.0825, 0
981, 0.4675, 0.0825, 0
982, 0.495, 0.0825, 0
983, 0.5225, 0.0825, 0
984, 0.55, 0.0825, 0
985, -0.55, 0.11, 0
986, -0.5225, 0.11, 0
987, -0.495, 0.11, 0
988, -0.4675, 0.11, 0
989, -0.44, 0.11, 0
990, -0.4125, 0.11, 0
991, -0.385, 0.11, 0
992, -0.3575, 0.11, 0
993, -0.33, 0.11, 0
994, -0.3025, 0.11, 0
995, -0.275, 0.11, 0
996, -0.2475, 0.11, 0
997, -0.22, 0.11, 0
998, -0.1925, 0.11, 0
999, -0.165, 0.11, 0
1000, -0.1375, 0.11, 0
1001, -0.11, 0.11, 0
1002, -0.0825, 0.11, 0
1003, -0.055, 0.11, 0
1004, -0.0275, 0.11, 0
1005, 0, 0.11, 0
1006, 0.0275, 0.11, 0
1007, 0.055, 0.11, 0
1008, 0.0825, 0.11, 0
1009, 0.11, 0.11, 0
1010, 0.1375, 0.11, 0
1011, 0.165, 0.11, 0
1012, 0.1925, 0.11, 0
1013, 0.22, 0.11, 0
1014, 0.2475, 0.11, 0
1015, 0.275, 0.11, 0
1016, 0.3025, 0.11, 0
1017, 0.33, 0.11, 0
1018, 0.3575, 0.11, 0
1019, 0.385, 0.11, 0
1020, 0.4125, 0.11, 0
1021, 0.44, 0.11, 0
1022, 0.4675, 0.11, 0
1023, 0.495, 0.11, 0
1024, 0.5225, 0.11, 0
1025, 0.55, 0.11, 0
1026, -0.55, 0.1375, 0
1027, -0.5225, 0.1375, 0
1028, -0.495, 0.1375, 0
1029, -0.4675, 0.1375, 0
1030, -0.44, 0.1375, 0
1031, -0.4125, 0.1375, 0
1032, -0.385, 0.1375, 0
1033, -0.3575, 0.1375, 0
1034, -0.33, 0.1375, 0
1035, -0.3025, 0.1375, 0
1036, -0.275, 0.1375, 0
1037, -0.2475, 0.1375, 0
1038, -0.22, 0.1375, 0
1039, -0.1925, 0.1375, 0
1040, -0.165, 0.1375, 0
1041, -0.1375, 0.1375, 0
1042, -0.11, 0.1375, 0
1043, -0.0825, 0.1375, 0
1044, -0.055, 0.1375, 0
1045, -0.0275, 0.1375, 0
1046, 0, 0.1375, 0
1047, 0.0275, 0.1375, 0
1048, 0.055, 0.1375, 0
1049, 0.0825, 0.1375, 0
1050, 0.11, 0.1375, 0
1051, 0.1375, 0.1375, 0
1052, 0.165, 0.1375, 0
1053, 0.1925, 0.1375, 0
1054, 0.22, 0.1375, 0
1055, 0.2475, 0.1375, 0
1056, 0.275, 0.1375, 0
1057, 0.3025, 0.1375, 0
1058, 0.33, 0.1375, 0
1059, 0.3575, 0.1375, 0
1060, 0.385, 0.1375, 0
1061, 0.4125, 0.1375, 0
1062, 0.44, 0.1375, 0
1063, 0.4675, 0.1375, 0
1064, 0.495, 0.1375, 0
1065, 0.5225, 0.1375, 0
1066, 0.55, 0.1375, 0
1067, -0.55, 0.165, 0
1068, -0.5225, 0.165, 0
1069, -0.495, 0.165, 0
1070, -0.4675, 0.165, 0
1071, -0.44, 0.165, 0
1072, -0.4125, 0.165, 0
1073, -0.385, 0.165, 0
1074, -0.3575, 0.165, 0
1075, -0.33, 0.165, 0
1076, -0.3025, 0.165, 0
1077, -0.275, 0.165, 0
1078, -0.2475, 0.165, 0
1079, -0.22, 0.165, 0
1080, -0.1925, 0.165, 0
1081, -0.165, 0.165, 0
1082, -0.1375, 0.165, 0
1083, -0.11, 0.165, 0
1084, -0.0825, 0.165, 0
1085, -0.055, 0.165, 0
1086, -0.0275, 0.165, 0
1087, 0, 0.165, 0
1088, 0.0275, 0.165, 0
1089, 0.055, 0.165, 0
1090, 0.0825, 0.165, 0
1091, 0.11, 0.165, 0
1092, 0.1375, 0.165, 0
1093, 0.165, 0.165, 0
1094, 0.1925, 0.165, 0
1095, 0.22, 0.165, 0
1096, 0.2475, 0.165, 0
1097, 0.275, 0.165, 0
1098, 0.3025, 0.165, 0
1099, 0.33, 0.165, 0
1100, 0.3575, 0.165, 0
1101, 0.385, 0.165, 0
1102, 0.4125, 0.165, 0
1103, 0.44, 0.165, 0
1104, 0.4675, 0.165, 0
1105, 0.495, 0.165, 0
1106, 0.5225, 0.165, 0
1107, 0.55, 0.165, 0
1108, -0.55, 0.1925, 0
1109, -0.5225, 0.1925, 0
1110, -0.495, 0.1925, 0
1111, -0.4675, 0.1925, 0
1112, -0.44, 0.1925, 0
1113, -0.4125, 0.1925, 0
1114, -0.385, 0.1925, 0
1115, -0.3575, 0.1925, 0
1116, -0.33, 0.1925, 0
1117, -0.3025, 0.1925, 0
1118, -0.275, 0.1925, 0
1119, -0.2475, 0.1925, 0
1120, -0.22, 0.1925, 0
1121, -0.1925, 0.1925, 0
1122, -0.165, 0.1925, 0
1123, -0.1375, 0.1925, 0
1124, -0.11, 0.1925, 0
1125, -0.0825, 0.1925, 0
1126, -0.055, 0.1925, 0
1127, -0.0275, 0.1925, 0
1128, 0, 0.1925, 0
1129, 0.0275, 0.1925, 0
1130, 0.055, 0.1925, 0
1131, 0.0825, 0.1925, 0
1132, 0.11, 0.1925, 0
1133, 0.1375, 0.1925, 0
1134, 0.165, 0.1925, 0
1135, 0.1925, 0.1925, 0
1136, 0.22, 0.1925, 0
1137, 0.2475, 0.1925, 0
1138, 0.275, 0.1925, 0
1139, 0.3025, 0.1925, 0
1140, 0.33, 0.1925, 0
1141, 0.3575, 0.1925, 0
1142, 0.385, 0.1925, 0
1143, 0.4125, 0.1925, 0
1144, 0.44, 0.1925, 0
1145, 0.4675, 0.1925, 0
1146, 0.495, 0.1925, 0
1147, 0.5225, 0.1925, 0
1148, 0.55, 0.1925, 0
1149, -0.55, 0.22, 0
1150, -0.5225, 0.22, 0
1151, -0.495, 0.22, 0
1152, -0.4675, 0.22, 0
1153, -0.44, 0.22, 0
1154, -0.4125, 0.22, 0
1155, -0.385, 0.22, 0
1156, -0.3575, 0.22, 0
1157, -0.33, 0.22, 0
1158, -0.3025, 0.22, 0
1159, -0.275, 0.22, 0
1160, -0.2475, 0.22, 0
1161, -0.22, 0.22, 0
1162, -0.1925, 0.22, 0
1163, -0.165, 0.22, 0
1164, -0.1375, 0.22, 0
1165, -0.11, 0.22, 0
1166, -0.0825, 0.22, 0
1167, -0.055, 0.22, 0
1168, -0.0275, 0.22, 0
1169, 0, 0.22, 0
1170, 0.0275, 0.22, 0
1171, 0.055, 0.22, 0
1172, 0.0825, 0.22, 0
1173, 0.11, 0.22, 0
1174, 0.1375, 0.22, 0
1175, 0.165, 0.22, 0
1176, 0.1925, 0.22, 0
1177, 0.22, 0.22, 0
1178, 0.2475, 0.22, 0
1179, 0.275, 0.22, 0
1180, 0.3025, 0.22, 0
1181, 0.33, 0.22, 0
1182, 0.3575, 0.22, 0
1183, 0.385, 0.22, 0
1184, 0.4125, 0.22, 0
1185, 0.44, 0.22, 0
1186, 0.4675, 0.22, 0
1187, 0.495, 0.22, 0
1188, 0.5225, 0.22, 0
1189, 0.55, 0.22, 0
1190, -0.55, 0.2475, 0
1191, -0.5225, 0.2475, 0
1192, -0.495, 0.2475, 0
1193, -0.4675, 0.2475, 0
1194, -0.44, 0.2475, 0
1195, -0.4125, 0.2475, 0
1196, -0.385, 0.2475, 0
1197, -0.3575, 0.2475, 0
1198, -0.33, 0.2475, 0
1199, -0.3025, 0.2475, 0
1200, -0.275, 0.2475, 0
1201, -0.2475, 0.2475, 0
1202, -0.22, 0.2475, 0
1203, -0.1925, 0.2475, 0
1204, -0.165, 0.2475, 0
1205, -0.1375, 0.2475, 0
1206, -0.11, 0.2475, 0
1207, -0.0825, 0.2475, 0
1208, -0.055, 0.2475, 0
1209, -0.0275, 0.2475, 0
1210, 0, 0.2475, 0
1211, 0.0275, 0.2475, 0
1212, 0.055, 0.2475, 0
1213, 0.0825, 0.2475, 0
1214, 0.11, 0.2475, 0
1215, 0.1375, 0.2475, 0
1216, 0.165, 0.2475, 0
1217, 0.1925, 0.2475, 0
1218, 0.22, 0.2475, 0
1219, 0.2475, 0.2475, 0
1220, 0.275, 0.2475, 0
1221, 0.3025, 0.2475, 0
1222, 0.33, 0.2475, 0
1223, 0.3575, 0.2475, 0
1224, 0.385, 0.2475, 0
1225, 0.4125, 0.2475, 0
1226, 0.44, 0.2475, 0
1227, 0.4675, 0.2475, 0
1228, 0.495, 0.2475, 0
1229, 0.5225, 0.2475, 0
1230, 0.55, 0.2475, 0
1231, -0.55, 0.275, 0
1232, -0.5225, 0.275, 0
1233, -0.495, 0.275, 0
1234, -0.4675, 0.275, 0
1235, -0.44, 0.275, 0
1236, -0.4125, 0.275, 0
1237, -0.385, 0.275, 0
1238, -0.3575, 0.275, 0
1239, -0.33, 0.275, 0
1240, -0.3025, 0.275, 0
1241, -0.275, 0.275, 0
1242, -0.2475, 0.275, 0
1243, -0.22, 0.275, 0
1244, -0.1925, 0.275, 0
1245, -0.165, 0.275, 0
1246, -0.1375, 0.275, 0
1247, -0.11, 0.275, 0
1248, -0.0825, 0.275, 0
1249, -0.055, 0.275, 0
1250, -0.0275, 0.275, 0
1251, 0, 0.275, 0
1252, 0.0275, 0.275, 0
1253, 0.055, 0.275, 0
1254, 0.0825, 0.275, 0
1255, 0.11, 0.275, 0
1256, 0.1375, 0.275, 0
1257, 0.165, 0.275, 0
1258, 0.1925, 0.275, 0
1259, 0.22, 0.275, 0
1260, 0.2475, 0.275, 0
1261, 0.275, 0.275, 0
1262, 0.3025, 0.275, 0
1263, 0.33, 0.275, 0
1264, 0.3575, 0.275, 0
1265, 0.385, 0.275, 0
1266, 0.4125, 0.275, 0
1267, 0.44, 0.275, 0
1268, 0.4675, 0.275, 0
1269, 0.495, 0.275, 0
1270, 0.5225, 0.275, 0
1271, 0.55, 0.275, 0
1272, -0.55, 0.3025, 0
1273, -0.5225, 0.3025, 0
1274, -0.495, 0.3025, 0
1275, -0.4675, 0.3025, 0
1276, -0.44, 0.3025, 0
1277, -0.4125, 0.3025, 0
1278, -0.385, 0.3025, 0
1279, -0.3575, 0.3025, 0
1280, -0.33, 0.3025, 0
1281, -0.3025, 0.3025, 0
1282, -0.275, 0.3025, 0
1283, -0.2475, 0.3025, 0
1284, -0.22, 0.3025, 0
1285, -0.1925, 0.3025, 0
1286, -0.165, 0.3025, 0
1287, -0.1375, 0.3025, 0
1288, -0.11, 0.3025, 0
1289, -0.0825, 0.3025, 0
1290, -0.055, 0.3025, 0
1291, -0.0275, 0.3025, 0
1292, 0, 0.3025, 0
1293, 0.0275, 0.3025, 0
1294, 0.055, 0.3025, 0
1295, 0.0825, 0.3025, 0
1296, 0.11, 0.3025, 0
1297, 0.1375, 0.3025, 0
1298, 0.165, 0.3025, 0
1299, 0.1925, 0.3025, 0
1300, 0.22, 0.3025, 0
1301, 0.2475, 0.3025, 0
1302, 0.275, 0.3025, 0
1303, 0.3025, 0.3025, 0
1304, 0.33, 0.3025, 0
1305, 0.3575, 0.3025, 0
1306, 0.385, 0.3025, 0
1307, 0.4125, 0.3025, 0
1308, 0.44, 0.3025, 0
1309, 0.4675, 0.3025, 0
1310, 0.495, 0.3025, 0
1311, 0.5225, 0.3025, 0
1312, 0.55, 0.3025, 0
1313, -0.55, 0.33, 0
1314, -0.5225, 0.33, 0
1315, -0.495, 0.33, 0
1316, -0.4675, 0.33, 0
1317, -0.44, 0.33, 0
1318, -0.4125, 0.33, 0
1319, -0.385, 0.33, 0
1320, -0.3575, 0.33, 0
1321, -0.33, 0.33, 0
1322, -0.3025, 0.33, 0
1323, -0.275, 0.33, 0
1324, -0.2475, 0.33, 0
1325, -0.22, 0.33, 0
1326, -0.1925, 0.33, 0
1327, -0.165, 0.33, 0
1328, -0.1375, 0.33, 0
1329, -0.11, 0.33, 0
1330, -0.0825, 0.33, 0
1331, -0.055, 0.33, 0
1332, -0.0275, 0.33, 0
1333, 0, 0.33, 0
1334, 0.0275, 0.33, 0
1335, 0.055, 0.33, 0
1336, 0.0825, 0.33, 0
1337, 0.11, 0.33, 0
1338, 0.1375, 0.33, 0
1339, 0.165, 0.33, 0
1340, 0.1925, 0.33, 0
1341, 0.22, 0.33, 0
1342, 0.2475, 0.33, 0
1343, 0.275, 0.33, 0
1344, 0.3025, 0.33, 0
1345, 0.33, 0.33, 0
1346, 0.3575, 0.33, 0
1347, 0.385, 0.33, 0
1348, 0.4125, 0.33, 0
1349, 0.44, 0.33, 0
1350, 0.4675, 0.33, 0
1351, 0.495, 0.33, 0
1352, 0.5225, 0.33, 0
1353, 0.55, 0.33, 0
1354, -0.55, 0.3575, 0
1355, -0.5225, 0.3575, 0
1356, -0.495, 0.3575, 0
1357, -0.4675, 0.3575, 0
1358, -0.44, 0.3575, 0
1359, -0.4125, 0.3575, 0
1360, -0.385, 0.3575, 0
1361, -0.3575, 0.3575, 0
1362, -0.33, 0.3575, 0
1363, -0.3025, 0.3575, 0
1364, -0.275, 0.3575, 0
1365, -0.2475, 0.3575, 0
1366, -0.22, 0.3575, 0
1367, -0.1925, 0.3575, 0
1368, -0.165, 0.3575, 0
1369, -0.1375, 0.3575, 0
1370, -0.11, 0.3575, 0
1371, -0.0825, 0.3575, 0
1372, -0.055, 0.3575, 0
1373, -0.0275, 0.3575, 0
1374, 0, 0.3575, 0
1375, 0.0275, 0.3575, 0
1376, 0.055, 0.3575, 0
1377, 0.0825, 0.3575, 0
1378, 0.11, 0.3575, 0
1379, 0.1375, 0.3575, 0
1380, 0.165, 0.3575, 0
1381, 0.1925, 0.3575, 0
1382, 0.22, 0.3575, 0
1383, 0.2475, 0.3575, 0
1384, 0.275, 0.3575, 0
1385, 0.3025, 0.3575, 0
1386, 0.33, 0.3575, 0
1387, 0.3575, 0.3575, 0
1388, 0.385, 0.3575, 0
1389, 0.4125, 0.3575, 0
1390, 0.44, 0.3575, 0
1391, 0.4675, 0.3575, 0
1392, 0.495, 0.3575, 0
1393, 0.5225, 0.3575, 0
1394, 0.55, 0.3575, 0
1395, -0.55, 0.385, 0
1396, -0.5225, 0.385, 0
1397, -0.495, 0.385, 0
1398, -0.4675, 0.385, 0
1399, -0.44, 0.385, 0
1400, -0.4125, 0.385, 0
1401, -0.385, 0.385, 0
1402, -0.3575, 0.385, 0
1403, -0.33, 0.385, 0
1404, -0.3025, 0.385, 0
1405, -0.275, 0.385, 0
1406, -0.2475, 0.385, 0
1407, -0.22, 0.385, 0
1408, -0.1925, 0.385, 0
1409, -0.165, 0.385, 0
1410, -0.1375, 0.385, 0
1411, -0.11, 0.385, 0
1412, -0.0825, 0.385, 0
1413, -0.055, 0.385, 0
1414, -0.0275, 0.385, 0
1415, 0, 0.385, 0
1416, 0.0275, 0.385, 0
1417, 0.055, 0.385, 0
1418, 0.0825, 0.385, 0
1419, 0.11, 0.385, 0
1420, 0.1375, 0.385, 0
1421, 0.165, 0.385, 0
1422, 0.1925, 0.385, 0
1423, 0.22, 0.385, 0
1424, 0.2475, 0.385, 0
1425, 0.275, 0.385, 0
1426, 0.3025, 0.385, 0
1427, 0.33, 0.385, 0
1428, 0.3575, 0.385, 0
1429, 0.385, 0.385, 0
1430, 0.4125, 0.385, 0
1431, 0.44, 0.385, 0
1432, 0.4675, 0.385, 0
1433, 0.495, 0.385, 0
1434, 0.5225, 0.385, 0
1435, 0.55, 0.385, 0
1436, -0.55, 0.4125, 0
1437, -0.5225, 0.4125, 0
1438, -0.495, 0.4125, 0
1439, -0.4675, 0.4125, 0
1440, -0.44, 0.4125, 0
1441, -0.4125, 0.4125, 0
1442, -0.385, 0.4125, 0
1443, -0.3575, 0.4125, 0
1444, -0.33, 0.4125, 0
1445, -0.3025, 0.4125, 0
1446, -0.275, 0.4125, 0
1447, -0.2475, 0.4125, 0
1448, -0.22, 0.4125, 0
1449, -0.1925, 0.4125, 0
1450, -0.165, 0.4125, 0
1451, -0.1375, 0.4125, 0
1452, -0.11, 0.4125, 0
1453, -0.0825, 0.4125, 0
1454, -0.055, 0.4125, 0
1455, -0.0275, 0.4125, 0
1456, 0, 0.4125, 0
1457, 0.0275, 0.4125, 0
1458, 0.055, 0.4125, 0
1459, 0.0825, 0.4125, 0
1460, 0.11, 0.4125, 0
1461, 0.1375, 0.4125, 0
1462, 0.165, 0.4125, 0
1463, 0.1925, 0.4125, 0
1464, 0.22, 0.4125, 0
1465, 0.2475, 0.4125, 0
1466, 0.275, 0.4125, 0
1467, 0.3025, 0.4125, 0
1468, 0.33, 0.4125, 0
1469, 0.3575, 0.4125, 0
1470, 0.385, 0.4125, 0
1471, 0.4125, 0.4125, 0
1472, 0.44, 0.4125, 0
1473, 0.4675, 0.4125, 0
1474, 0.495, 0.4125, 0
1475, 0.5225, 0.4125, 0
1476, 0.55, 0.4125, 0
1477, -0.55, 0.44, 0
1478, -0.5225, 0.44, 0
1479, -0.495, 0.44, 0
1480, -0.4675, 0.44, 0
1481, -0.44, 0.44, 0
1482, -0.4125, 0.44, 0
1483, -0.385, 0.44, 0
1484, -0.3575, 0.44, 0
1485, -0.33, 0.44, 0
1486, -0.3025, 0.44, 0
1487, -0.275, 0.44, 0
1488, -0.2475, 0.44, 0
1489, -0.22, 0.44, 0
1490, -0.1925, 0.44, 0
1491, -0.165, 0.44, 0
1492, -0.1375, 0.44, 0
1493, -0.11, 0.44, 0
1494, -0.0825, 0.44, 0
1495, -0.055, 0.44, 0
1496, -0.0275, 0.44, 0
1497, 0, 0.44, 0
1498, 0.0275, 0.44, 0
1499, 0.055, 0.44, 0
1500, 0.0825, 0.44, 0
1501, 0.11, 0.44, 0
1502, 0.1375, 0.44, 0
1503, 0.165, 0.44, 0
1504, 0.1925, 0.44, 0
1505, 0.22, 0.44, 0
1506, 0.2475, 0.44, 0
1507, 0.275, 0.44, 0
1508, 0.3025, 0.44, 0
1509, 0.33, 0.44, 0
1510, 0.3575, 0.44, 0
1511, 0.385, 0.44, 0
1512, 0.4125, 0.44, 0
1513, 0.44, 0.44, 0
1514, 0.4675, 0.44, 0
1515, 0.495, 0.44, 0
1516, 0.5225, 0.44, 0
1517, 0.55, 0.44, 0
1518, -0.55, 0.4675, 0
1519, -0.5225, 0.4675, 0
1520, -0.495, 0.4675, 0
1521, -0.4675, 0.4675, 0
1522, -0.44, 0.4675, 0
1523, -0.4125, 0.4675, 0
1524, -0.385, 0.4675, 0
1525, -0.3575, 0.4675, 0
1526, -0.33, 0.4675, 0
1527, -0.3025, 0.4675, 0
1528, -0.275, 0.4675, 0
1529, -0.2475, 0.4675, 0
1530, -0.22, 0.4675, 0
1531, -0.1925, 0.4675, 0
1532, -0.165, 0.4675, 0
1533, -0.1375, 0.4675, 0
1534, -0.11, 0.4675, 0
1535, -0.0825, 0.4675, 0
1536, -0.055, 0.4675, 0
1537, -0.0275, 0.4675, 0
1538, 0, 0.4675, 0
1539, 0.0275, 0.4675, 0
1540, 0.055, 0.4675, 0
1541, 0.0825, 0.4675, 0
1542, 0.11, 0.4675, 0
1543, 0.1375, 0.4675, 0
1544, 0.165, 0.4675, 0
1545, 0.1925, 0.4675, 0
1546, 0.22, 0.4675, 0
1547, 0.2475, 0.4675, 0
1548, 0.275, 0.4675, 0
1549, 0.3025, 0.4675, 0
1550, 0.33, 0.4675, 0
1551, 0.3575, 0.4675, 0
1552, 0.385, 0.4675, 0
1553, 0.4125, 0.4675, 0
1554, 0.44, 0.4675, 0
1555, 0.4675, 0.4675, 0
1556, 0.495, 0.4675, 0
1557, 0.5225, 0.4675, 0
1558, 0.55, 0.4675, 0
1559, -0.55, 0.495, 0
1560, -0.5225, 0.495, 0
1561, -0.495, 0.495, 0
1562, -0.4675, 0.495, 0
1563, -0.44, 0.495, 0
1564, -0.4125, 0.495, 0
1565, -0.385, 0.495, 0
1566, -0.3575, 0.495, 0
1567, -0.33, 0.495, 0
1568, -0.3025, 0.495, 0
1569, -0.275, 0.495, 0
1570, -0.2475, 0.495, 0
1571, -0.22, 0.495, 0
1572, -0.1925, 0.495, 0
1573, -0.165, 0.495, 0
1574, -0.1375, 0.495, 0
1575, -0.11, 0.495, 0
1576, -0.0825, 0.495, 0
1577, -0.055, 0.495, 0
1578, -0.0275, 0.495, 0
1579, 0, 0.495, 0
1580, 0.0275, 0.495, 0
1581, 0.055, 0.495, 0
1582, 0.0825, 0.495, 0
1583, 0.11, 0.495, 0
1584, 0.1375, 0.495, 0
1585, 0.165, 0.495, 0
1586, 0.1925, 0.495, 0
1587, 0.22, 0.495, 0
1588, 0.2475, 0.495, 0
1589, 0.275, 0.495, 0
1590, 0.3025, 0.495, 0
1591, 0.33, 0.495, 0
1592, 0.3575, 0.495, 0
1593, 0.385, 0.495, 0
1594, 0.4125, 0.495, 0
1595, 0.44, 0.495, 0
1596, 0.4675, 0.495, 0
1597, 0.495, 0.495, 0
1598, 0.5225, 0.495, 0
1599, 0.55, 0.495, 0
1600, -0.55, 0.5225, 0
1601, -0.5225, 0.5225, 0
1602, -0.495, 0.5225, 0
1603, -0.4675, 0.5225, 0
1604, -0.44, 0.5225, 0
1605, -0.4125, 0.5225, 0
1606, -0.385, 0.5225, 0
1607, -0.3575, 0.5225, 0
1608, -0.33, 0.5225, 0
1609, -0.3025, 0.5225, 0
1610, -0.275, 0.5225, 0
1611, -0.2475, 0.5225, 0
1612, -0.22, 0.5225, 0
1613, -0.1925, 0.5225, 0
1614, -0.165, 0.5225, 0
1615, -0.1375, 0.5225, 0
1616, -0.11, 0.5225, 0
1617, -0.0825, 0.5225, 0
1618, -0.055, 0.5225, 0
1619, -0.0275, 0.5225, 0
1620, 0, 0.5225, 0
1621, 0.0275, 0.5225, 0
1622, 0.055, 0.5225, 0
1623, 0.0825, 0.5225, 0
1624, 0.11, 0.5225, 0
1625, 0.1375, 0.5225, 0
1626, 0.165, 0.5225, 0
1627, 0.1925, 0.5225, 0
1628, 0.22, 0.5225, 0
1629, 0.2475, 0.5225, 0
1630, 0.275, 0.5225, 0
1631, 0.3025, 0.5225, 0
1632, 0.33, 0.5225, 0
1633, 0.3575, 0.5225, 0
1634, 0.385, 0.5225, 0
1635, 0.4125, 0.5225, 0
1636, 0.44, 0.5225, 0
1637, 0.4675, 0.5225, 0
1638, 0.495, 0.5225, 0
1639, 0.5225, 0.5225, 0
1640, 0.55, 0.5225, 0
1641, -0.55, 0.55, 0
1642, -0.5225, 0.55, 0
1643, -0.495, 0.55, 0
1644, -0.4675, 0.55, 0
1645, -0.44, 0.55, 0
1646, -0.4125, 0.55, 0
1647, -0.385, 0.55, 0
1648, -0.3575, 0.55, 0
1649, -0.33, 0.55, 0
1650, -0.3025, 0.55, 0
1651, -0.275, 0.55, 0
1652, -0.2475, 0.55, 0
1653, -0.22, 0.55, 0
1654, -0.1925, 0.55, 0
1655, -0.165, 0.55, 0
1656, -0.1375, 0.55, 0
1657, -0.11, 0.55, 0
1658, -0.0825, 0.55, 0
1659, -0.055, 0.55, 0
1660, -0.0275, 0.55, 0
1661, 0, 0.55, 0
1662, 0.0275, 0.55, 0
1663, 0.055, 0.55, 0
1664, 0.0825, 0.55, 0
1665, 0.11, 0.55, 0
1666, 0.1375, 0.55, 0
1667, 0.165, 0.55, 0
1668, 0.1925, 0.55, 0
1669, 0.22, 0.55, 0
1670, 0.2475, 0.55, 0
1671, 0.275, 0.55, 0
1672, 0.3025, 0.55, 0
1673, 0.33, 0.55, 0
1674, 0.3575, 0.55, 0
1675, 0.385, 0.55, 0
1676, 0.4125, 0.55, 0
1677, 0.44, 0.55, 0
1678, 0.4675, 0.55, 0
1679, 0.495, 0.55, 0
1680, 0.5225, 0.55, 0
1681, 0.55, 0.55, 0
*ELEMENT, TYPE=S4, ELSET=EALL
1, 1, 2, 43, 42
2, 2, 3, 44, 43
3, 3, 4, 45, 44
4, 4, 5, 46, 45
5, 5, 6, 47, 46
6, 6, 7, 48, 47
7, 7, 8, 49, 48
8, 8, 9, 50, 49
9, 9, 10, 51, 50
10, 10, 11, 52, 51
11, 11, 12, 53, 52
12, 12, 13, 54, 53
13, 13, 14, 55, 54
14, 14, 15, 56, 55
15, 15, 16, 57, 56
16, 16, 17, 58, 57
17, 17, 18, 59, 58
18, 18, 19, 60, 59
19, 19, 20, 61, 60
20, 20, 21, 62, 61
21, 21, 22, 63, 62
22, 22, 23, 64, 63
23, 23, 24, 65, 64
24, 24, 25, 66, 65
25, 25, 26, 67, 66
26, 26, 27, 68, 67
27, 27, 28, 69, 68
28, 28, 29, 70, 69
29, 29, 30, 71, 70
30, 30, 31, 72, 71
31, 31, 32, 73, 72
32, 32, 33, 74, 73
33, 33, 34, 75, 74
34, 34, 35, 76, 75
35, 35, 36, 77, 76
36, 36, 37, 78, 77
37, 37, 38, 79, 78
38, 38, 39, 80, 79
39, 39, 40, 81, 80
40, 40, 41, 82, 81
41, 42, 43, 84, 83
42, 43, 44, 85, 84
43, 44, 45, 86, 85
44, 45, 46, 87, 86
45, 46, 47, 88, 87
46, 47, 48, 89, 88
47, 48, 49, 90, 89
48, 49, 50, 91, 90
49, 50, 51, 92, 91
50, 51, 52, 93, 92
51, 52, 53, 94, 93
52, 53, 54, 95, 94
53, 54, 55, 96, 95
54, 55, 56, 97, 96
55, 56, 57, 98, 97
56, 57, 58, 99, 98
57, 58, 59, 100, 99
58, 59, 60, 101, 100
59, 60, 61, 102, 101
60, 61, 62, 103, 102
61, 62, 63, 104, 103
62, 63, 64, 105, 104
63, 64, 65, 106, 105
64, 65, 66, 107, 106
65, 66, 67, 108, 107
66, 67, 68, 109, 108
67, 68, 69, 110, 109
68, 69, 70, 111, 110
69, 70, 71, 112, 111
70, 71, 72, 113, 112
71, 72, 73, 114, 113
72, 73, 74, 115, 114
73, 74, 75, 116, 115
74, 75, 76, 117, 116
75, 76, 77, 118, 117
76, 77, 78, 119, 118
77, 78, 79, 120, 119
78, 79, 80, 121, 120
79, 80, 81, 122, 121
80, 81, 82, 123, 122
81, 83, 84, 125, 124
82, 84, 85, 126, 125
83, 85, 86, 127, 126
84, 86, 87, 128, 127
85, 87, 88, 129, 128
86, 88, 89, 130, 129
87, 89, 90, 131, 130
88, 90, 91, 132, 131
89, 91, 92, 133, 132
90, 92, 93, 134, 133
91, 93, 94, 135, 134
92, 94, 95, 136, 135
93, 95, 96, 137, 136
94, 96, 97, 138, 137
95, 97, 98, 139, 138
96, 98, 99, 140, 139
97, 99, 100, 141, 140
98, 100, 101, 142, 141
99, 101, 102, 143, 142
100, 102, 103, 144, 143
101, 103, 104, 145, 144
102, 104, 105, 146, 145
103, 105, 106, 147, 146
104, 106, 107, 148, 147
105, 107, 108, 149, 148
106, 108, 109, 150, 149
107, 109, 110, 151, 150
108, 110, 111, 152, 151
109, 111, 112, 153, 152
110, 112, 113, 154, 153
111, 113, 114, 155, 154
112, 114, 115, 156, 155
113, 115, 116, 157, 156
114, 116, 117, 158, 157
115, 117, 118, 159, 158
116, 118, 119, 160, 159
117, 119, 120, 161, 160
118, 120, 121, 162, 161
119, 121, 122, 163, 162
120, 122, 123, 164, 163
121, 124, 125, 166, 165
122, 125, 126, 167, 166
123, 126, 127, 168, 167
124, 127, 128, 169, 168
125, 128, 129, 170, 169
126, 129, 130, 171, 170
127, 130, 131, 172, 171
128, 131, 132, 173, 172
129, 132, 133, 174, 173
130, 133, 134, 175, 174
131, 134, 135, 176, 175
132, 135, 136, 177, 176
133, 136, 137, 178, 177
134, 137, 138, 179, 178
135, 138, 139, 180, 179
136, 139, 140, 181, 180
137, 140, 141, 182, 181
138, 141, 142, 183, 182
139, 142, 143, 184, 183
140, 143, 144, 185, 184
141, 144, 145, 186, 185
142, 145, 146, 187, 186
143, 146, 147, 188, 187
144, 147, 148, 189, 188
145, 148, 149, 190, 189
146, 149, 150, 191, 190
147, 150, 151, 192, 191
148, 151, 152, 193, 192
149, 152, 153, 194, 193
150, 153, 154, 195, 194
151, 154, 155, 196, 195
152, 155, 156, 197, 196
153, 156, 157, 198, 197
154, 157, 158, 199, 198
155, 158, 159, 200, 199
156, 159, 160, 201, 200
157, 160, 161, 202, 201
158, 161, 162, 203, 202
159, 162, 163, 204, 203
160, 163, 164, 205, 204
161, 165, 166, 207, 206
162, 166, 167, 208, 207
163, 167, 168, 209, 208
164, 168, 169, 210, 209
165, 169, 170, 211, 210
166, 170, 171, 212, 211
167, 171, 172, 213, 212
168, 172, 173, 214, 213
169, 173, 174, 215, 214
170, 174, 175, 216, 215
171, 175, 176, 217, 216
172, 176, 177, 218, 217
173, 177, 178, 219, 218
174, 178, 179, 220, 219
175, 179, 180, 221, 220
176, 180, 181, 222, 221
177, 181, 182, 223, 222
178, 182, 183, 224, 223
179, 183, 184, 225, 224
180, 184, 185, 226, 225
181, 185, 186, 227, 226
182, 186, 187, 228, 227
183, 187, 188, 229, 228
184, 188, 189, 230, 229
185, 189, 190, 231, 230
186, 190, 191, 232, 231
187, 191, 192, 233, 232
188, 192, 193, 234, 233
189, 193, 194, 235, 234
190, 194, 195, 236, 235
191, 195, 196, 237, 236
192, 196, 197, 238, 237
193, 197, 198, 239, 238
194, 198, 199, 240, 239
195, 199, 200, 241, 240
196, 200, 201, 242, 241
197, 201, 202, 243, 242
198, 202, 203, 244, 243
199, 203, 204, 245, 244
200, 204, 205, 246, 245
201, 206, 207, 248, 247
202, 207, 208, 249, 248
203, 208, 209, 250, 249
204, 209, 210, 251, 250
205, 210, 211, 252, 251
206, 211, 212, 253, 252
207, 212, 213, 254, 253
208, 213, 214, 255, 254
209, 214, 215, 256, 255
210, 215, 216, 257, 256
211, 216, 217, 258, 257
212, 217, 218, 259, 258
213, 218, 219, 260, 259
214, 219, 220, 261, 260
215, 220, 221, 262, 261
216, 221, 222, 263, 262
217, 222, 223, 264, 263
218, 223, 224, 265, 264
219, 224, 225, 266, 265
220, 225, 226, 267, 266
221, 226, 227, 268, 267
222, 227, 228, 269, 268
223, 228, 229, 270, 269
224, 229, 230, 271, 270
225, 230, 231, 272, 271
226, 231, 232, 273, 272
227, 232, 233, 274, 273
228, 233, 234, 275, 274
229, 234, 235, 276, 275
230, 235, 236, 277, 276
231, 236, 237, 278, 277
232, 237, 238, 279, 278
233, 238, 239, 280, 279
234, 239, 240, 281, 280
235, 240, 241, 282, 281
236, 241, 242, 283, 282
237, 242, 243, 284, 283
238, 243, 244, 285, 284
239, 244, 245, 286, 285
240, 245, 246, 287, 286
241, 247, 248, 289, 288
242, 248, 249, 290, 289
243, 249, 250, 291, 290
244, 250, 251, 292, 291
245, 251, 252, 293, 292
246, 252, 253, 294, 293
247, 253, 254, 295, 294
248, 254, 255, 296, 295
249, 255, 256, 297, 296
250, 256, 257, 298, 297
251, 257, 258, 299, 298
252, 258, 259, 300, 299
253, 259, 260, 301, 300
254, 260, 261, 302, 301
255, 261, 262, 303, 302
256, 262, 263, 304, 303
257, 263, 264, 305, 304
258, 264, 265, 306, 305
259, 265, 266, 307, 306
260, 266, 267, 308, 307
261, 267, 268, 309, 308
262, 268, 269, 310, 309
263, 269, 270, 311, 310
264, 270, 271, 312, 311
265, 271, 272, 313, 312
266, 272, 273, 314, 313
267, 273, 274, 315, 314
268, 274, 275, 316, 315
269, 275, 276, 317, 316
270, 276, 277, 318, 317
271, 277, 278, 319, 318
272, 278, 279, 320, 319
273, 279, 280, 321, 320
274, 280, 281, 322, 321
275, 281, 282, 323, 322
276, 282, 283, 324, 323
277, 283, 284, 325, 324
278, 284, 285, 326, 325
279, 285, 286, 327, 326
280, 286, 287, 328, 327
281, 288, 289, 330, 329
282, 289, 290, 331, 330
283, 290, 291, 332, 331
284, 291, 292, 333, 332
285, 292, 293, 334, 333
286, 293, 294, 335, 334
287, 294, 295, 336, 335
288, 295, 296, 337, 336
289, 296, 297, 338, 337
290, 297, 298, 339, 338
291, 298, 299, 340, 339
292, 299, 300, 341, 340
293, 300, 301, 342, 341
294, 301, 302, 343, 342
295, 302, 303, 344, 343
296, 303, 304, 345, 344
297, 304, 305, 346, 345
298, 305, 306, 347, 346
299, 306, 307, 348, 347
300, 307, 308, 349, 348
301, 308, 309, 350, 349
302, 309, 310, 351, 350
303, 310, 311, 352, 351
304, 311, 312, 353, 352
305, 312, 313, 354, 353
306, 313, 314, 355, 354
307, 314, 315, 356, 355
308, 315, 316, 357, 356
309, 316, 317, 358, 357
310, 317, 318, 359, 358
311, 318, 319, 360, 359
312, 319, 320, 361, 360
313, 320, 321, 362, 361
314, 321, 322, 363, 362
315, 322, 323, 364, 363
316, 323, 324, 365, 364
317, 324, 325, 366, 365
318, 325, 326, 367, 366
319, 326, 327, 368, 367
320, 327, 328, 369, 368
321, 329, 330, 371, 370
322, 330, 331, 372, 371
323, 331, 332, 373, 372
324, 332, 333, 374, 373
325, 333, 334, 375, 374
326, 334, 335, 376, 375
327, 335, 336, 377, 376
328, 336, 337, 378, 377
329, 337, 338, 379, 378
330, 338, 339, 380, 379
331, 339, 340, 381, 380
332, 340, 341, 382, 381
333, 341, 342, 383, 382
334, 342, 343, 384, 383
335, 343, 344, 385, 384
336, 344, 345, 386, 385
337, 345, 346, 387, 386
338, 346, 347, 388, 387
339, 347, 348, 389, 388
340, 348, 349, 390, 389
341, 349, 350, 391, 390
342, 350, 351, 392, 391
343, 351, 352, 393, 392
344, 352, 353, 394, 393
345, 353, 354, 395, 394
346, 354, 355, 396, 395
347, 355, 356, 397, 396
348, 356, 357, 398, 397
349, 357, 358, 399, 398
350, 358, 359, 400, 399
351, 359, 360, 401, 400
352, 360, 361, 402, 401
353, 361, 362, 403, 402
354, 362, 363, 404, 403
355, 363, 364, 405, 404
356, 364, 365, 406, 405
357, 365, 366, 407, 406
358, 366, 367, 408, 407
359, 367, 368, 409, 408
360, 368, 369, 410, 409
361, 370, 371, 412, 411
362, 371, 372, 413, 412
363, 372, 373, 414, 413
364, 373, 374, 415, 414
365, 374, 375, 416, 415
366, 375, 376, 417, 416
367, 376, 377, 418, 417
368, 377, 378, 419, 418
369, 378, 379, 420, 419
370, 379, 380, 421, 420
371, 380, 381, 422, 421
372, 381, 382, 423, 422
373, 382, 383, 424, 423
374, 383, 384, 425, 424
375, 384, 385, 426, 425
376, 385, 386, 427, 426
377, 386, 387, 428, 427
378, 387, 388, 429, 428
379, 388, 389, 430, 429
380, 389, 390, 431, 430
381, 390, 391, 432, 431
382, 391, 392, 433, 432
383, 392, 393, 434, 433
384, 393, 394, 435, 434
385, 394, 395, 436, 435
386, 395, 396, 437, 436
387, 396, 397, 438, 437
388, 397, 398, 439, 438
389, 398, 399, 440, 439
390, 399, 400, 441, 440
391, 400, 401, 442, 441
392, 401, 402, 443, 442
393, 402, 403, 444, 443
394, 403, 404, 445, 444
395, 404, 405, 446, 445
396, 405, 406, 447, 446
397, 406, 407, 448, 447
398, 407, 408, 449, 448
399, 408, 409, 450, 449
400, 409, 410, 451, 450
401, 411, 412, 453, 452
402, 412, 413, 454, 453
403, 413, 414, 455, 454
404, 414, 415, 456, 455
405, 415, 416, 457, 456
406, 416, 417, 458, 457
407, 417, 418, 459, 458
408, 418, 419, 460, 459
409, 419, 420, 461, 460
410, 420, 421, 462, 461
411, 421, 422, 463, 462
412, 422, 423, 464, 463
413, 423, 424, 465, 464
414, 424, 425, 466, 465
415, 425, 426, 467, 466
416, 426, 427, 468, 467
417, 427, 428, 469, 468
418, 428, 429, 470, 469
419, 429, 430, 471, 470
420, 430, 431, 472, 471
421, 431, 432, 473, 472
422, 432, 433, 474, 473
423, 433, 434, 475, 474
424, 434, 435, 476, 475
425, 435, 436, 477, 476
426, 436, 437, 478, 477
427, 437, 438, 479, 478
428, 438, 439, 480, 479
429, 439, 440, 481, 480
430, 440, 441, 482, 481
431, 441, 442, 483, 482
432, 442, 443, 484, 483
433, 443, 444, 485, 484
434, 444, 445, 486, 485
435, 445, 446, 487, 486
436, 446, 447, 488, 487
437, 447, 448, 489, 488
438, 448, 449, 490, 489
439, 449, 450, 491, 490
440, 450, 451, 492, 491
441, 452, 453, 494, 493
442, 453, 454, 495, 494
443, 454, 455, 496, 495
444, 455, 456, 497, 496
445, 456, 457, 498, 497
446, 457, 458, 499, 498
447, 458, 459, 500, 499
448, 459, 460, 501, 500
449, 460, 461, 502, 501
450, 461, 462, 503, 502
451, 462, 463, 504, 503
452, 463, 464, 505, 504
453, 464, 465, 506, 505
454, 465, 466, 507, 506
455, 466, 467, 508, 507
456, 467, 468, 509, 508
457, 468, 469, 510, 509
458, 469, 470, 511, 510
459, 470, 471, 512, 511
460, 471, 472, 513, 512
461, 472, 473, 514, 513
462, 473, 474, 515, 514
463, 474, 475, 516, 515
464, 475, 476, 517, 516
465, 476, 477, 518, 517
466, 477, 478, 519, 518
467, 478, 479, 520, 519
468, 479, 480, 521, 520
469, 480, 481, 522, 521
470, 481, 482, 523, 522
471, 482, 483, 524, 523
472, 483, 484, 525, 524
473, 484, 485, 526, 525
474, 485, 486, 527, 526
475, 486, 487, 528, 527
476, 487, 488, 529, 528
477, 488, 489, 530, 529
478, 489, 490, 531, 530
479, 490, 491, 532, 531
480, 491, 492, 533, 532
481, 493, 494, 535, 534
482, 494, 495, 536, 535
483, 495, 496, 537, 536
484, 496, 497, 538, 537
485, 497, 498, 539, 538
486, 498, 499, 540, 539
487, 499, 500, 541, 540
488, 500, 501, 542, 541
489, 501, 502, 543, 542
490, 502, 503, 544, 543
491, 503, 504, 545, 544
492, 504, 505, 546, 545
493, 505, 506, 547, 546
494, 506, 507, 548, 547
495, 507, 508, 549, 548
496, 508, 509, 550, 549
497, 509, 510, 551, 550
498, 510, 511, 552, 551
499, 511, 512, 553, 552
500, 512, 513, 554, 553
501, 513, 514, 555, 554
502, 514, 515, 556, 555
503, 515, 516, 557, 556
504, 516, 517, 558, 557
505, 517, 518, 559, 558
506, 518, 519, 560, 559
507, 519, 520, 561, 560
508, 520, 521, 562, 561
509, 521, 522, 563, 562
510, 522, 523, 564, 563
511, 523, 524, 565, 564
512, 524, 525, 566, 565
513, 525, 526, 567, 566
514, 526, 527, 568, 567
515, 527, 528, 569, 568
516, 528, 529, 570, 569
517, 529, 530, 571, 570
518, 530, 531, 572, 571
519, 531, 532, 573, 572
520, 532, 533, 574, 573
521, 534, 535, 576, 575
522, 535, 536, 577, 576
523, 536, 537, 578, 577
524, 537, 538, 579, 578
525, 538, 539, 580, 579
526, 539, 540, 581, 580
527, 540, 541, 582, 581
528, 541, 542, 583, 582
529, 542, 543, 584, 583
530, 543, 544, 585, 584
531, 544, 545, 586, 585
532, 545, 546, 587, 586
533, 546, 547, 588, 587
534, 547, 548, 589, 588
535, 548, 549, 590, 589
536, 549, 550, 591, 590
537, 550, 551, 592, 591
538, 551, 552, 593, 592
539, 552, 553, 594, 593
540, 553, 554, 595, 594
541, 554, 555, 596, 595
542, 555, 556, 597, 596
543, 556, 557, 598, 597
544, 557, 558, 599, 598
545, 558, 559, 600, 599
546, 559, 560, 601, 600
547, 560, 561, 602, 601
548, 561, 562, 603, 602
549, 562, 563, 604, 603
550, 563, 564, 605, 604
551, 564, 565, 606, 605
552, 565, 566, 607, 606
553, 566, 567, 608, 607
554, 567, 568, 609, 608
555, 568, 569, 610, 609
556, 569, 570, 611, 610
557, 570, 571, 612, 611
558, 571, 572, 613, 612
559, 572, 573, 614, 613
560, 573, 574, 615, 614
561, 575, 576, 617, 616
562, 576, 577, 618, 617
563, 577, 578, 619, 618
564, 578, 579, 620, 619
565, 579, 580, 621, 620
566, 580, 581, 622, 621
567, 581, 582, 623, 622
568, 582, 583, 624, 623
569, 583, 584, 625, 624
570, 584, 585, 626, 625
571, 585, 586, 627, 626
572, 586, 587, 628, 627
573, 587, 588, 629, 628
574, 588, 589, 630, 629
575, 589, 590, 631, 630
576, 590, 591, 632, 631
577, 591, 592, 633, 632
578, 592, 593, 634, 633
579, 593, 594, 635, 634
580, 594, 595, 636, 635
581, 595, 596, 637, 636
582, 596, 597, 638, 637
583, 597, 598, 639, 638
584, 598, 599, 640, 639
585, 599, 600, 641, 640
586, 600, 601, 642, 641
587, 601, 602, 643, 642
588, 602, 603, 644, 643
589, 603, 604, 645, 644
590, 604, 605, 646, 645
591, 605, 606, 647, 646
592, 606, 607, 648, 647
593, 607, 608, 649, 648
594, 608, 609, 650, 649
595, 609, 610, 651, 650
596, 610, 611, 652, 651
597, 611, 612, 653, 652
598, 612, 613, 654, 653
599, 613, 614, 655, 654
600, 614, 615, 656, 655
601, 616, 617, 658, 657
602, 617, 618, 659, 658
603, 618, 619, 660, 659
604, 619, 620, 661, 660
605, 620, 621, 662, 661
606, 621, 622, 663, 662
607, 622, 623, 664, 663
608, 623, 624, 665, 664
609, 624, 625, 666, 665
610, 625, 626, 667, 666
611, 626, 627, 668, 667
612, 627, 628, 669, 668
613, 628, 629, 670, 669
614, 629, 630, 671, 670
615, 630, 631, 672, 671
616, 631, 632, 673, 672
617, 632, 633, 674, 673
618, 633, 634, 675, 674
619, 634, 635, 676, 675
620, 635, 636, 677, 676
621, 636, 637, 678, 677
622, 637, 638, 679, 678
623, 638, 639, 680, 679
624, 639, 640, 681, 680
625, 640, 641, 682, 681
626, 641, 642, 683, 682
627, 642, 643, 684, 683
628, 643, 644, 685, 684
629, 644, 645, 686, 685
630, 645, 646, 687, 686
631, 646, 647, 688, 687
632, 647, 648, 689, 688
633, 648, 649, 690, 689
634, 649, 650, 691, 690
635, 650, 651, 692, 691
636, 651, 652, 693, 692
637, 652, 653, 694, 693
638, 653, 654, 695, 694
639, 654, 655, 696, 695
640, 655, 656, 697, 696
641, 657, 658, 699, 698
642, 658, 659, 700, 699
643, 659, 660, 701, 700
644, 660, 661, 702, 701
645, 661, 662, 703, 702
646, 662, 663, 704, 703
647, 663, 664, 705, 704
648, 664, 665, 706, 705
649, 665, 666, 707, 706
650, 666, 667, 708, 707
651, 667, 668, 709, 708
652, 668, 669, 710, 709
653, 669, 670, 711, 710
654, 670, 671, 712, 711
655, 671, 672, 713, 712
656, 672, 673, 714, 713
657, 673, 674, 715, 714
658, 674, 675, 716, 715
659, 675, 676, 717, 716
660, 676, 677, 718, 717
661, 677, 678, 719, 718
662, 678, 679, 720, 719
663, 679, 680, 721, 720
664, 680, 681, 722, 721
665, 681, 682, 723, 722
666, 682, 683, 724, 723
667, 683, 684, 725, 724
668, 684, 685, 726, 725
669, 685, 686, 727, 726
670, 686, 687, 728, 727
671, 687, 688, 729, 728
672, 688, 689, 730, 729
673, 689, 690, 731, 730
674, 690, 691, 732, 731
675, 691, 692, 733, 732
676, 692, 693, 734, 733
677, 693, 694, 735, 734
678, 694, 695, 736, 735
679, 695, 696, 737, 736
680, 696, 697, 738, 737
681, 698, 699, 740, 739
682, 699, 700, 741, 740
683, 700, 701, 742, 741
684, 701, 702, 743, 742
685, 702, 703, 744, 743
686, 703, 704, 745, 744
687, 704, 705, 746, 745
688, 705, 706, 747, 746
689, 706, 707, 748, 747
690, 707, 708, 749, 748
691, 708, 709, 750, 749
692, 709, 710, 751, 750
693, 710, 711, 752, 751
694, 711, 712, 753, 752
695, 712, 713, 754, 753
696, 713, 714, 755, 754
697, 714, 715, 756, 755
698, 715, 716, 757, 756
699, 716, 717, 758, 757
700, 717, 718, 759, 758
701, 718, 719, 760, 759
702, 719, 720, 761, 760
703, 720, 721, 762, 761
704, 721, 722, 763, 762
705, 722, 723, 764, 763
706, 723, 724, 765, 764
707, 724, 725, 766, 765
708, 725, 726, 767, 766
709, 726, 727, 768, 767
710, 727, 728, 769, 768
711, 728, 729, 770, 769
712, 729, 730, 771, 770
713, 730, 731, 772, 771
714, 731, 732, 773, 772
715, 732, 733, 774, 773
716, 733, 734, 775, 774
717, 734, 735, 776, 775
718, 735, 736, 777, 776
719, 736, 737, 778, 777
720, 737, 738, 779, 778
721, 739, 740, 781, 780
722, 740, 741, 782, 781
723, 741, 742, 783, 782
724, 742, 743, 784, 783
725, 743, 744, 785, 784
726, 744, 745, 786, 785
727, 745, 746, 787, 786
728, 746, 747, 788, 787
729, 747, 748, 789, 788
730, 748, 749, 790, 789
731, 749, 750, 791, 790
732, 750, 751, 792, 791
733, 751, 752, 793, 792
734, 752, 753, 794, 793
735, 753, 754, 795, 794
736, 754, 755, 796, 795
737, 755, 756, 797, 796
738, 756, 757, 798, 797
739, 757, 758, 799, 798
740, 758, 759, 800, 799
741, 759, 760, 801, 800
742, 760, 761, 802, 801
743, 761, 762, 803, 802
744, 762, 763, 804, 803
745, 763, 764, 805, 804
746, 764, 765, 806, 805
747, 765, 766, 807, 806
748, 766, 767, 808, 807
749, 767, 768, 809, 808
750, 768, 769, 810, 809
751, 769, 770, 811, 810
752, 770, 771, 812, 811
753, 771, 772, 813, 812
754, 772, 773, 814, 813
755, 773, 774, 815, 814
756, 774, 775, 816, 815
757, 775, 776, 817, 816
758, 776, 777, 818, 817
759, 777, 778, 819, 818
760, 778, 779, 820, 819
761, 780, 781, 822, 821
762, 781, 782, 823, 822
763, 782, 783, 824, 823
764, 783, 784, 825, 824
765, 784, 785, 826, 825
766, 785, 786, 827, 826
767, 786, 787, 828, 827
768, 787, 788, 829, 828
769, 788, 789, 830, 829
770, 789, 790, 831, 830
771, 790, 791, 832, 831
772, 791, 792, 833, 832
773, 792, 793, 834, 833
774, 793, 794, 835, 834
775, 794, 795, 836, 835
776, 795, 796, 837, 836
777, 796, 797, 838, 837
778, 797, 798, 839, 838
779, 798, 799, 840, 839
780, 799, 800, 841, 840
781, 800, 801, 842, 841
782, 801, 802, 843, 842
783, 802, 803, 844, 843
784, 803, 804, 845, 844
785, 804, 805, 846, 845
786, 805, 806, 847, 846
787, 806, 807, 848, 847
788, 807, 808, 849, 848
789, 808, 809, 850, 849
790, 809, 810, 851, 850
791, 810, 811, 852, 851
792, 811, 812, 853, 852
793, 812, 813, 854, 853
794, 813, 814, 855, 854
795, 814, 815, 856, 855
796, 815, 816, 857, 856
797, 816, 817, 858, 857
798, 817, 818, 859, 858
799, 818, 819, 860, 859
800, 819, 820, 861, 860
801, 821, 822, 863, 862
802, 822, 823, 864, 863
803, 823, 824, 865, 864
804, 824, 825, 866, 865
805, 825, 826, 867, 866
806, 826, 827, 868, 867
807, 827, 828, 869, 868
808, 828, 829, 870, 869
809, 829, 830, 871, 870
810, 830, 831, 872, 871
811, 831, 832, 873, 872
812, 832, 833, 874, 873
813, 833, 834, 875, 874
814, 834, 835, 876, 875
815, 835, 836, 877, 876
816, 836, 837, 878, 877
817, 837, 838, 879, 878
818, 838, 839, 880, 879
819, 839, 840, 881, 880
820, 840, 841, 882, 881
821, 841, 842, 883, 882
822, 842, 843, 884, 883
823, 843, 844, 885, 884
824, 844, 845, 886, 885
825, 845, 846, 887, 886
826, 846, 847, 888, 887
827, 847, 848, 889, 888
828, 848, 849, 890, 889
829, 849, 850, 891, 890
830, 850, 851, 892, 891
831, 851, 852, 893, 892
832, 852, 853, 894, 893
833, 853, 854, 895, 894
834, 854, 855, 896, 895
835, 855, 856, 897, 896
836, 856, 857, 898, 897
837, 857, 858, 899, 898
838, 858, 859, 900, 899
839, 859, 860, 901, 900
840, 860, 861, 902, 901
841, 862, 863, 904, 903
842, 863, 864, 905, 904
843, 864, 865, 906, 905
844, 865, 866, 907, 906
845, 866, 867, 908, 907
846, 867, 868, 909, 908
847, 868, 869, 910, 909
848, 869, 870, 911, 910
849, 870, 871, 912, 911
850, 871, 872, 913, 912
851, 872, 873, 914, 913
852, 873, 874, 915, 914
853, 874, 875, 916, 915
854, 875, 876, 917, 916
855, 876, 877, 918, 917
856, 877, 878, 919, 918
857, 878, 879, 920, 919
858, 879, 880, 921, 920
859, 880, 881, 922, 921
860, 881, 882, 923, 922
861, 882, 883, 924, 923
862, 883, 884, 925, 924
863, 884, 885, 926, 925
864, 885, 886, 927, 926
865, 886, 887, 928, 927
866, 887, 888, 929, 928
867, 888, 889, 930, 929
868, 889, 890, 931, 930
869, 890, 891, 932, 931
870, 891, 892, 933, 932
871, 892, 893, 934, 933
872, 893, 894, 935, 934
873, 894, 895, 936, 935
874, 895, 896, 937, 936
875, 896, 897, 938, 937
876, 897, 898, 939, 938
877, 898, 899, 940, 939
878, 899, 900, 941, 940
879, 900, 901, 942, 941
880, 901, 902, 943, 942
881, 903, 904, 945, 944
882, 904, 905, 946, 945
883, 905, 906, 947, 946
884, 906, 907, 948, 947
885, 907, 908, 949, 948
886, 908, 909, 950, 949
887, 909, 910, 951, 950
888, 910, 911, 952, 951
889, 911, 912, 953, 952
890, 912, 913, 954, 953
891, 913, 914, 955, 954
892, 914, 915, 956, 955
893, 915, 916, 957, 956
894, 916, 917, 958, 957
895, 917, 918, 959, 958
896, 918, 919, 960, 959
897, 919, 920, 961, 960
898, 920, 921, 962, 961
899, 921, 922, 963, 962
900, 922, 923, 964, 963
901, 923, 924, 965, 964
902, 924, 925, 966, 965
903, 925, 926, 967, 966
904, 926, 927, 968, 967
905, 927, 928, 969, 968
906, 928, 929, 970, 969
907, 929, 930, 971, 970
908, 930, 931, 972, 971
909, 931, 932, 973, 972
910, 932, 933, 974, 973
911, 933, 934, 975, 974
912, 934, 935, 976, 975
913, 935, 936, 977, 976
914, 936, 937, 978, 977
915, 937, 938, 979, 978
916, 938, 939, 980, 979
917, 939, 940, 981, 980
918, 940, 941, 982, 981
919, 941, 942, 983, 982
920, 942, 943, 984, 983
921, 944, 945, 986, 985
922, 945, 946, 987, 986
923, 946, 947, 988, 987
924, 947, 948, 989, 988
925, 948, 949, 990, 989
926, 949, 950, 991, 990
927, 950, 951, 992, 991
928, 951, 952, 993, 992
929, 952, 953, 994, 993
930, 953, 954, 995, 994
931, 954, 955, 996, 995
932, 955, 956, 997, 996
933, 956, 957, 998, 997
934, 957, 958, 999, 998
935, 958, 959, 1000, 999
936, 959, 960, 1001, 1000
937, 960, 961, 1002, 1001
938, 961, 962, 1003, 1002
939, 962, 963, 1004, 1003
940, 963, 964, 1005, 1004
941, 964, 965, 1006, 1005
942, 965, 966, 1007, 1006
943, 966, 967, 1008, 1007
944, 967, 968, 1009, 1008
945, 968, 969, 1010, 1009
946, 969, 970, 1011, 1010
947, 970, 971, 1012, 1011
948, 971, 972, 1013, 1012
949, 972, 973, 1014, 1013
950, 973, 974, 1015, 1014
951, 974, 975, 1016, 1015
952, 975, 976, 1017, 1016
953, 976, 977, 1018, 1017
954, 977, 978, 1019, 1018
955, 978, 979, 1020, 1019
956, 979, 980, 1021, 1020
957, 980, 981, 1022, 1021
958, 981, 982, 1023, 1022
959, 982, 983, 1024, 1023
960, 983, 984, 1025, 1024
961, 985, 986, 1027, 1026
962, 986, 987, 1028, 1027
963, 987, 988, 1029, 1028
964, 988, 989, 1030, 1029
965, 989, 990, 1031, 1030
966, 990, 991, 1032, 1031
967, 991, 992, 1033, 1032
968, 992, 993, 1034, 1033
969, 993, 994, 1035, 1034
970, 994, 995, 1036, 1035
971, 995, 996, 1037, 1036
972, 996, 997, 1038, 1037
973, 997, 998, 1039, 1038
974, 998, 999, 1040, 1039
975, 999, 1000, 1041, 1040
976, 1000, 1001, 1042, 1041
977, 1001, 1002, 1043, 1042
978, 1002, 1003, 1044, 1043
979, 1003, 1004, 1045, 1044
980, 1004, 1005, 1046, 1045
981, 1005, 1006, 1047, 1046
982, 1006, 1007, 1048, 1047
983, 1007, 1008, 1049, 1048
984, 1008, 1009, 1050, 1049
985, 1009, 1010, 1051, 1050
986, 1010, 1011, 1052, 1051
987, 1011, 1012, 1053, 1052
988, 1012, 1013, 1054, 1053
989, 1013, 1014, 1055, 1054
990, 1014, 1015, 1056, 1055
991, 1015, 1016, 1057, 1056
992, 1016, 1017, 1058, 1057
993, 1017, 1018, 1059, 1058
994, 1018, 1019, 1060, 1059
995, 1019, 1020, 1061, 1060
996, 1020, 1021, 1062, 1061
997, 1021, 1022, 1063, 1062
998, 1022, 1023, 1064, 1063
999, 1023, 1024, 1065, 1064
1000, 1024, 1025, 1066, 1065
1001, 1026, 1027, 1068, 1067
1002, 1027, 1028, 1069, 1068
1003, 1028, 1029, 1070, 1069
1004, 1029, 1030, 1071, 1070
1005, 1030, 1031, 1072, 1071
1006, 1031, 1032, 1073, 1072
1007, 1032, 1033, 1074, 1073
1008, 1033, 1034, 1075, 1074
1009, 1034, 1035, 1076, 1075
1010, 1035, 1036, 1077, 1076
1011, 1036, 1037, 1078, 1077
1012, 1037, 1038, 1079, 1078
1013, 1038, 1039, 1080, 1079
1014, 1039, 1040, 1081, 1080
1015, 1040, 1041, 1082, 1081
1016, 1041, 1042, 1083, 1082
1017, 1042, 1043, 1084, 1083
1018, 1043, 1044, 1085, 1084
1019, 1044, 1045, 1086, 1085
1020, 1045, 1046, 1087, 1086
1021, 1046, 1047, 1088, 1087
1022, 1047, 1048, 1089, 1088
1023, 1048, 1049, 1090, 1089
1024, 1049, 1050, 1091, 1090
1025, 1050, 1051, 1092, 1091
1026, 1051, 1052, 1093, 1092
1027, 1052, 1053, 1094, 1093
1028, 1053, 1054, 1095, 1094
1029, 1054, 1055, 1096, 1095
1030, 1055, 1056, 1097, 1096
1031, 1056, 1057, 1098, 1097
1032, 1057, 1058, 1099, 1098
1033, 1058, 1059, 1100, 1099
1034, 1059, 1060, 1101, 1100
1035, 1060, 1061, 1102, 1101
1036, 1061, 1062, 1103, 1102
1037, 1062, 1063, 1104, 1103
1038, 1063, 1064, 1105, 1104
1039, 1064, 1065, 1106, 1105
1040, 1065, 1066, 1107, 1106
1041, 1067, 1068, 1109, 1108
1042, 1068, 1069, 1110, 1109
1043, 1069, 1070, 1111, 1110
1044, 1070, 1071, 1112, 1111
1045, 1071, 1072, 1113, 1112
1046, 1072, 1073, 1114, 1113
1047, 1073, 1074, 1115, 1114
1048, 1074, 1075, 1116, 1115
1049, 1075, 1076, 1117, 1116
1050, 1076, 1077, 1118, 1117
1051, 1077, 1078, 1119, 1118
1052, 1078, 1079, 1120, 1119
1053, 1079, 1080, 1121, 1120
1054, 1080, 1081, 1122, 1121
1055, 1081, 1082, 1123, 1122
1056, 1082, 1083, 1124, 1123
1057, 1083, 1084, 1125, 1124
1058, 1084, 1085, 1126, 1125
1059, 1085, 1086, 1127, 1126
1060, 1086, 1087, 1128, 1127
1061, 1087, 1088, 1129, 1128
1062, 1088, 1089, 1130, 1129
1063, 1089, 1090, 1131, 1130
1064, 1090, 1091, 1132, 1131
1065, 1091, 1092, 1133, 1132
1066, 1092, 1093, 1134, 1133
1067, 1093, 1094, 1135, 1134
1068, 1094, 1095, 1136, 1135
1069, 1095, 1096, 1137, 1136
1070, 1096, 1097, 1138, 1137
1071, 1097, 1098, 1139, 1138
1072, 1098, 1099, 1140, 1139
1073, 1099, 1100, 1141, 1140
1074, 1100, 1101, 1142, 1141
1075, 1101, 1102, 1143, 1142
1076, 1102, 1103, 1144, 1143
1077, 1103, 1104, 1145, 1144
1078, 1104, 1105, 1146, 1145
1079, 1105, 1106, 1147, 1146
1080, 1106, 1107, 1148, 1147
1081, 1108, 1109, 1150, 1149
1082, 1109, 1110, 1151, 1150
1083, 1110, 1111, 1152, 1151
1084, 1111, 1112, 1153, 1152
1085, 1112, 1113, 1154, 1153
1086, 1113, 1114, 1155, 1154
1087, 1114, 1115, 1156, 1155
1088, 1115, 1116, 1157, 1156
1089, 1116, 1117, 1158, 1157
1090, 1117, 1118, 1159, 1158
1091, 1118, 1119, 1160, 1159
1092, 1119, 1120, 1161, 1160
1093, 1120, 1121, 1162, 1161
1094, 1121, 1122, 1163, 1162
1095, 1122, 1123, 1164, 1163
1096, 1123, 1124, 1165, 1164
1097, 1124, 1125, 1166, 1165
1098, 1125, 1126, 1167, 1166
1099, 1126, 1127, 1168, 1167
1100, 1127, 1128, 1169, 1168
1101, 1128, 1129, 1170, 1169
1102, 1129, 1130, 1171, 1170
1103, 1130, 1131, 1172, 1171
1104, 1131, 1132, 1173, 1172
1105, 1132, 1133, 1174, 1173
1106, 1133, 1134, 1175, 1174
1107, 1134, 1135, 1176, 1175
1108, 1135, 1136, 1177, 1176
1109, 1136, 1137, 1178, 1177
1110, 1137, 1138, 1179, 1178
1111, 1138, 1139, 1180, 1179
1112, 1139, 1140, 1181, 1180
1113, 1140, 1141, 1182, 1181
1114, 1141, 1142, 1183, 1182
1115, 1142, 1143, 1184, 1183
1116, 1143, 1144, 1185, 1184
1117, 1144, 1145, 1186, 1185
1118, 1145, 1146, 1187, 1186
1119, 1146, 1147, 1188, 1187
1120, 1147, 1148, 1189, 1188
1121, 1149, 1150, 1191, 1190
1122, 1150, 1151, 1192, 1191
1123, 1151, 1152, 1193, 1192
1124, 1152, 1153, 1194, 1193
1125, 1153, 1154, 1195, 1194
1126, 1154, 1155, 1196, 1195
1127, 1155, 1156, 1197, 1196
1128, 1156, 1157, 1198, 1197
1129, 1157, 1158, 1199, 1198
1130, 1158, 1159, 1200, 1199
1131, 1159, 1160, 1201, 1200
1132, 1160, 1161, 1202, 1201
1133, 1161, 1162, 1203, 1202
1134, 1162, 1163, 1204, 1203
1135, 1163, 1164, 1205, 1204
1136, 1164, 1165, 1206, 1205
1137, 1165, 1166, 1207, 1206
1138, 1166, 1167, 1208, 1207
1139, 1167, 1168, 1209, 1208
1140, 1168, 1169, 1210, 1209
1141, 1169, 1170, 1211, 1210
1142, 1170, 1171, 1212, 1211
1143, 1171, 1172, 1213, 1212
1144, 1172, 1173, 1214, 1213
1145, 1173, 1174, 1215, 1214
1146, 1174, 1175, 1216, 1215
1147, 1175, 1176, 1217, 1216
1148, 1176, 1177, 1218, 1217
1149, 1177, 1178, 1219, 1218
1150, 1178, 1179, 1220, 1219
1151, 1179, 1180, 1221, 1220
1152, 1180, 1181, 1222, 1221
1153, 1181, 1182, 1223, 1222
1154, 1182, 1183, 1224, 1223
1155, 1183, 1184, 1225, 1224
1156, 1184, 1185, 1226, 1225
1157, 1185, 1186, 1227, 1226
1158, 1186, 1187, 1228, 1227
1159, 1187, 1188, 1229, 1228
1160, 1188, 1189, 1230, 1229
1161, 1190, 1191, 1232, 1231
1162, 1191, 1192, 1233, 1232
1163, 1192, 1193, 1234, 1233
1164, 1193, 1194, 1235, 1234
1165, 1194, 1195, 1236, 1235
1166, 1195, 1196, 1237, 1236
1167, 1196, 1197, 1238, 1237
1168, 1197, 1198, 1239, 1238
1169, 1198, 1199, 1240, 1239
1170, 1199, 1200, 1241, 1240
1171, 1200, 1201, 1242, 1241
1172, 1201, 1202, 1243, 1242
1173, 1202, 1203, 1244, 1243
1174, 1203, 1204, 1245, 1244
1175, 1204, 1205, 1246, 1245
1176, 1205, 1206, 1247, 1246
1177, 1206, 1207, 1248, 1247
1178, 1207, 1208, 1249, 1248
1179, 1208, 1209, 1250, 1249
1180, 1209, 1210, 1251, 1250
1181, 1210, 1211, 1252, 1251
1182, 1211, 1212, 1253, 1252
1183, 1212, 1213, 1254, 1253
1184, 1213, 1214, 1255, 1254
1185, 1214, 1215, 1256, 1255
1186, 1215, 1216, 1257, 1256
1187, 1216, 1217, 1258, 1257
1188, 1217, 1218, 1259, 1258
1189, 1218, 1219, 1260, 1259
1190, 1219, 1220, 1261, 1260
1191, 1220, 1221, 1262, 1261
1192, 1221, 1222, 1263, 1262
1193, 1222, 1223, 1264, 1263
1194, 1223, 1224, 1265, 1264
1195, 1224, 1225, 1266, 1265
1196, 1225, 1226, 1267, 1266
1197, 1226, 1227, 1268, 1267
1198, 1227, 1228, 1269, 1268
1199, 1228, 1229, 1270, 1269
1200, 1229, 1230, 1271, 1270
1201, 1231, 1232, 1273, 1272
1202, 1232, 1233, 1274, 1273
1203, 1233, 1234, 1275, 1274
1204, 1234, 1235, 1276, 1275
1205, 1235, 1236, 1277, 1276
1206, 1236, 1237, 1278, 1277
1207, 1237, 1238, 1279, 1278
1208, 1238, 1239, 1280, 1279
1209, 1239, 1240, 1281, 1280
1210, 1240, 1241, 1282, 1281
1211, 1241, 1242, 1283, 1282
1212, 1242, 1243, 1284, 1283
1213, 1243, 1244, 1285, 1284
1214, 1244, 1245, 1286, 1285
1215, 1245, 1246, 1287, 1286
1216, 1246, 1247, 1288, 1287
1217, 1247, 1248, 1289, 1288
1218, 1248, 1249, 1290, 1289
1219, 1249, 1250, 1291, 1290
1220, 1250, 1251, 1292, 1291
1221, 1251, 1252, 1293, 1292
1222, 1252, 1253, 1294, 1293
1223, 1253, 1254, 1295, 1294
1224, 1254, 1255, 1296, 1295
1225, 1255, 1256, 1297, 1296
1226, 1256, 1257, 1298, 1297
1227, 1257, 1258, 1299, 1298
1228, 1258, 1259, 1300, 1299
1229, 1259, 1260, 1301, 1300
1230, 1260, 1261, 1302, 1301
1231, 1261, 1262, 1303, 1302
1232, 1262, 1263, 1304, 1303
1233, 1263, 1264, 1305, 1304
1234, 1264, 1265, 1306, 1305
1235, 1265, 1266, 1307, 1306
1236, 1266, 1267, 1308, 1307
1237, 1267, 1268, 1309, 1308
1238, 1268, 1269, 1310, 1309
1239, 1269, 1270, 1311, 1310
1240, 1270, 1271, 1312, 1311
1241, 1272, 1273, 1314, 1313
1242, 1273, 1274, 1315, 1314
1243, 1274, 1275, 1316, 1315
1244, 1275, 1276, 1317, 1316
1245, 1276, 1277, 1318, 1317
1246, 1277, 1278, 1319, 1318
1247, 1278, 1279, 1320, 1319
1248, 1279, 1280, 1321, 1320
1249, 1280, 1281, 1322, 1321
1250, 1281, 1282, 1323, 1322
1251, 1282, 1283, 1324, 1323
1252, 1283, 1284, 1325, 1324
1253, 1284, 1285, 1326, 1325
1254, 1285, 1286, 1327, 1326
1255, 1286, 1287, 1328, 1327
1256, 1287, 1288, 1329, 1328
1257, 1288, 1289, 1330, 1329
1258, 1289, 1290, 1331, 1330
1259, 1290, 1291, 1332, 1331
1260, 1291, 1292, 1333, 1332
1261, 1292, 1293, 1334, 1333
1262, 1293, 1294, 1335, 1334
1263, 1294, 1295, 1336, 1335
1264, 1295, 1296, 1337, 1336
1265, 1296, 1297, 1338, 1337
1266, 1297, 1298, 1339, 1338
1267, 1298, 1299, 1340, 1339
1268, 1299, 1300, 1341, 1340
1269, 1300, 1301, 1342, 1341
1270, 1301, 1302, 1343, 1342
1271, 1302, 1303, 1344, 1343
1272, 1303, 1304, 1345, 1344
1273, 1304, 1305, 1346, 1345
1274, 1305, 1306, 1347, 1346
1275, 1306, 1307, 1348, 1347
1276, 1307, 1308, 1349, 1348
1277, 1308, 1309, 1350, 1349
1278, 1309, 1310, 1351, 1350
1279, 1310, 1311, 1352, 1351
1280, 1311, 1312, 1353, 1352
1281, 1313, 1314, 1355, 1354
1282, 1314, 1315, 1356, 1355
1283, 1315, 1316, 1357, 1356
1284, 1316, 1317, 1358, 1357
1285, 1317, 1318, 1359, 1358
1286, 1318, 1319, 1360, 1359
1287, 1319, 1320, 1361, 1360
1288, 1320, 1321, 1362, 1361
1289, 1321, 1322, 1363, 1362
1290, 1322, 1323, 1364, 1363
1291, 1323, 1324, 1365, 1364
1292, 1324, 1325, 1366, 1365
1293, 1325, 1326, 1367, 1366
1294, 1326, 1327, 1368, 1367
1295, 1327, 1328, 1369, 1368
1296, 1328, 1329, 1370, 1369
1297, 1329, 1330, 1371, 1370
1298, 1330, 1331, 1372, 1371
1299, 1331, 1332, 1373, 1372
1300, 1332, 1333, 1374, 1373
1301, 1333, 1334, 1375, 1374
1302, 1334, 1335, 1376, 1375
1303, 1335, 1336, 1377, 1376
1304, 1336, 1337, 1378, 1377
1305, 1337, 1338, 1379, 1378
1306, 1338, 1339, 1380, 1379
1307, 1339, 1340, 1381, 1380
1308, 1340, 1341, 1382, 1381
1309, 1341, 1342, 1383, 1382
1310, 1342, 1343, 1384, 1383
1311, 1343, 1344, 1385, 1384
1312, 1344, 1345, 1386, 1385
1313, 1345, 1346, 1387, 1386
1314, 1346, 1347, 1388, 1387
1315, 1347, 1348, 1389, 1388
1316, 1348, 1349, 1390, 1389
1317, 1349, 1350, 1391, 1390
1318, 1350, 1351, 1392, 1391
1319, 1351, 1352, 1393, 1392
1320, 1352, 1353, 1394, 1393
1321, 1354, 1355, 1396, 1395
1322, 1355, 1356, 1397, 1396
1323, 1356, 1357, 1398, 1397
1324, 1357, 1358, 1399, 1398
1325, 1358, 1359, 1400, 1399
1326, 1359, 1360, 1401, 1400
1327, 1360, 1361, 1402, 1401
1328, 1361, 1362, 1403, 1402
1329, 1362, 1363, 1404, 1403
1330, 1363, 1364, 1405, 1404
1331, 1364, 1365, 1406, 1405
1332, 1365, 1366, 1407, 1406
1333, 1366, 1367, 1408, 1407
1334, 1367, 1368, 1409, 1408
1335, 1368, 1369, 1410, 1409
1336, 1369, 1370, 1411, 1410
1337, 1370, 1371, 1412, 1411
1338, 1371, 1372, 1413, 1412
1339, 1372, 1373, 1414, 1413
1340, 1373, 1374, 1415, 1414
1341, 1374, 1375, 1416, 1415
1342, 1375, 1376, 1417, 1416
1343, 1376, 1377, 1418, 1417
1344, 1377, 1378, 1419, 1418
1345, 1378, 1379, 1420, 1419
1346, 1379, 1380, 1421, 1420
1347, 1380, 1381, 1422, 1421
1348, 1381, 1382, 1423, 1422
1349, 1382, 1383, 1424, 1423
1350, 1383, 1384, 1425, 1424
1351, 1384, 1385, 1426, 1425
1352, 1385, 1386, 1427, 1426
1353, 1386, 1387, 1428, 1427
1354, 1387, 1388, 1429, 1428
1355, 1388, 1389, 1430, 1429
1356, 1389, 1390, 1431, 1430
1357, 1390, 1391, 1432, 1431
1358, 1391, 1392, 1433, 1432
1359, 1392, 1393, 1434, 1433
1360, 1393, 1394, 1435, 1434
1361, 1395, 1396, 1437, 1436
1362, 1396, 1397, 1438, 1437
1363, 1397, 1398, 1439, 1438
1364, 1398, 1399, 1440, 1439
1365, 1399, 1400, 1441, 1440
1366, 1400, 1401, 1442, 1441
1367, 1401, 1402, 1443, 1442
1368, 1402, 1403, 1444, 1443
1369, 1403, 1404, 1445, 1444
1370, 1404, 1405, 1446, 1445
1371, 1405, 1406, 1447, 1446
1372, 1406, 1407, 1448, 1447
1373, 1407, 1408, 1449, 1448
1374, 1408, 1409, 1450, 1449
1375, 1409, 1410, 1451, 1450
1376, 1410, 1411, 1452, 1451
1377, 1411, 1412, 1453, 1452
1378, 1412, 1413, 1454, 1453
1379, 1413, 1414, 1455, 1454
1380, 1414, 1415, 1456, 1455
1381, 1415, 1416, 1457, 1456
1382, 1416, 1417, 1458, 1457
1383, 1417, 1418, 1459, 1458
1384, 1418, 1419, 1460, 1459
1385, 1419, 1420, 1461, 1460
1386, 1420, 1421, 1462, 1461
1387, 1421, 1422, 1463, 1462
1388, 1422, 1423, 1464, 1463
1389, 1423, 1424, 1465, 1464
1390, 1424, 1425, 1466, 1465
1391, 1425, 1426, 1467, 1466
1392, 1426, 1427, 1468, 1467
1393, 1427, 1428, 1469, 1468
1394, 1428, 1429, 1470, 1469
1395, 1429, 1430, 1471, 1470
1396, 1430, 1431, 1472, 1471
1397, 1431, 1432, 1473, 1472
1398, 1432, 1433, 1474, 1473
1399, 1433, 1434, 1475, 1474
1400, 1434, 1435, 1476, 1475
1401, 1436, 1437, 1478, 1477
1402, 1437, 1438, 1479, 1478
1403, 1438, 1439, 1480, 1479
1404, 1439, 1440, 1481, 1480
1405, 1440, 1441, 1482, 1481
1406, 1441, 1442, 1483, 1482
1407, 1442, 1443, 1484, 1483
1408, 1443, 1444, 1485, 1484
1409, 1444, 1445, 1486, 1485
1410, 1445, 1446, 1487, 1486
1411, 1446, 1447, 1488, 1487
1412, 1447, 1448, 1489, 1488
1413, 1448, 1449, 1490, 1489
1414, 1449, 1450, 1491, 1490
1415, 1450, 1451, 1492, 1491
1416, 1451, 1452, 1493, 1492
1417, 1452, 1453, 1494, 1493
1418, 1453, 1454, 1495, 1494
1419, 1454, 1455, 1496, 1495
1420, 1455, 1456, 1497, 1496
1421, 1456, 1457, 1498, 1497
1422, 1457, 1458, 1499, 1498
1423, 1458, 1459, 1500, 1499
1424, 1459, 1460, 1501, 1500
1425, 1460, 1461, 1502, 1501
1426, 1461, 1462, 1503, 1502
1427, 1462, 1463, 1504, 1503
1428, 1463, 1464, 1505, 1504
1429, 1464, 1465, 1506, 1505
1430, 1465, 1466, 1507, 1506
1431, 1466, 1467, 1508, 1507
1432, 1467, 1468, 1509, 1508
1433, 1468, 1469, 1510, 1509
1434, 1469, 1470, 1511, 1510
1435, 1470, 1471, 1512, 1511
1436, 1471, 1472, 1513, 1512
1437, 1472, 1473, 1514, 1513
1438, 1473, 1474, 1515, 1514
1439, 1474, 1475, 1516, 1515
1440, 1475, 1476, 1517, 1516
1441, 1477, 1478, 1519, 1518
1442, 1478, 1479, 1520, 1519
1443, 1479, 1480, 1521, 1520
1444, 1480, 1481, 1522, 1521
1445, 1481, 1482, 1523, 1522
1446, 1482, 1483, 1524, 1523
1447, 1483, 1484, 1525, 1524
1448, 1484, 1485, 1526, 1525
1449, 1485, 1486, 1527, 1526
1450, 1486, 1487, 1528, 1527
1451, 1487, 1488, 1529, 1528
1452, 1488, 1489, 1530, 1529
1453, 1489, 1490, 1531, 1530
1454, 1490, 1491, 1532, 1531
1455, 1491, 1492, 1533, 1532
1456, 1492, 1493, 1534, 1533
1457, 1493, 1494, 1535, 1534
1458, 1494, 1495, 1536, 1535
1459, 1495, 1496, 1537, 1536
1460, 1496, 1497, 1538, 1537
1461, 1497, 1498, 1539, 1538
1462, 1498, 1499, 1540, 1539
1463, 1499, 1500, 1541, 1540
1464, 1500, 1501, 1542, 1541
1465, 1501, 1502, 1543, 1542
1466, 1502, 1503, 1544, 1543
1467, 1503, 1504, 1545, 1544
1468, 1504, 1505, 1546, 1545
1469, 1505, 1506, 1547, 1546
1470, 1506, 1507, 1548, 1547
1471, 1507, 1508, 1549, 1548
1472, 1508, 1509, 1550, 1549
1473, 1509, 1510, 1551, 1550
1474, 1510, 1511, 1552, 1551
1475, 1511, 1512, 1553, 1552
1476, 1512, 1513, 1554, 1553
1477, 1513, 1514, 1555, 1554
1478, 1514, 1515, 1556, 1555
1479, 1515, 1516, 1557, 1556
1480, 1516, 1517, 1558, 1557
1481, 1518, 1519, 1560, 1559
1482, 1519, 1520, 1561, 1560
1483, 1520, 1521, 1562, 1561
1484, 1521, 1522, 1563, 1562
1485, 1522, 1523, 1564, 1563
1486, 1523, 1524, 1565, 1564
1487, 1524, 1525, 1566, 1565
1488, 1525, 1526, 1567, 1566
1489, 1526, 1527, 1568, 1567
1490, 1527, 1528, 1569, 1568
1491, 1528, 1529, 1570, 1569
1492, 1529, 1530, 1571, 1570
1493, 1530, 1531, 1572, 1571
1494, 1531, 1532, 1573, 1572
1495, 1532, 1533, 1574, 1573
1496, 1533, 1534, 1575, 1574
1497, 1534, 1535, 1576, 1575
1498, 1535, 1536, 1577, 1576
1499, 1536, 1537, 1578, 1577
1500, 1537, 1538, 1579, 1578
1501, 1538, 1539, 1580, 1579
1502, 1539, 1540, 1581, 1580
1503, 1540, 1541, 1582, 1581
1504, 1541, 1542, 1583, 1582
1505, 1542, 1543, 1584, 1583
1506, 1543, 1544, 1585, 1584
1507, 1544, 1545, 1586, 1585
1508, 1545, 1546, 1587, 1586
1509, 1546, 1547, 1588, 1587
1510, 1547, 1548, 1589, 1588
1511, 1548, 1549, 1590, 1589
1512, 1549, 1550, 1591, 1590
1513, 1550, 1551, 1592, 1591
1514, 1551, 1552, 1593, 1592
1515, 1552, 1553, 1594, 1593
1516, 1553, 1554, 1595, 1594
1517, 1554, 1555, 1596, 1595
1518, 1555, 1556, 1597, 1596
1519, 1556, 1557, 1598, 1597
1520, 1557, 1558, 1599, 1598
1521, 1559, 1560, 1601, 1600
1522, 1560, 1561, 1602, 1601
1523, 1561, 1562, 1603, 1602
1524, 1562, 1563, 1604, 1603
1525, 1563, 1564, 1605, 1604
1526, 1564, 1565, 1606, 1605
1527, 1565, 1566, 1607, 1606
1528, 1566, 1567, 1608, 1607
1529, 1567, 1568, 1609, 1608
1530, 1568, 1569, 1610, 1609
1531, 1569, 1570, 1611, 1610
1532, 1570, 1571, 1612, 1611
1533, 1571, 1572, 1613, 1612
1534, 1572, 1573, 1614, 1613
1535, 1573, 1574, 1615, 1614
1536, 1574, 1575, 1616, 1615
1537, 1575, 1576, 1617, 1616
1538, 1576, 1577, 1618, 1617
1539, 1577, 1578, 1619, 1618
1540, 1578, 1579, 1620, 1619
1541, 1579, 1580, 1621, 1620
1542, 1580, 1581, 1622, 1621
1543, 1581, 1582, 1623, 1622
1544, 1582, 1583, 1624, 1623
1545, 1583, 1584, 1625, 1624
1546, 1584, 1585, 1626, 1625
1547, 1585, 1586, 1627, 1626
1548, 1586, 1587, 1628, 1627
1549, 1587, 1588, 1629, 1628
1550, 1588, 1589, 1630, 1629
1551, 1589, 1590, 1631, 1630
1552, 1590, 1591, 1632, 1631
1553, 1591, 1592, 1633, 1632
1554, 1592, 1593, 1634, 1633
1555, 1593, 1594, 1635, 1634
1556, 1594, 1595, 1636, 1635
1557, 1595, 1596, 1637, 1636
1558, 1596, 1597, 1638, 1637
1559, 1597, 1598, 1639, 1638
1560, 1598, 1599, 1640, 1639
1561, 1600, 1601, 1642, 1641
1562, 1601, 1602, 1643, 1642
1563, 1602, 1603, 1644, 1643
1564, 1603, 1604, 1645, 1644
1565, 1604, 1605, 1646, 1645
1566, 1605, 1606, 1647, 1646
1567, 1606, 1607, 1648, 1647
1568, 1607, 1608, 1649, 1648
1569, 1608, 1609, 1650, 1649
1570, 1609, 1610, 1651, 1650
1571, 1610, 1611, 1652, 1651
1572, 1611, 1612, 1653, 1652
1573, 1612, 1613, 1654, 1653
1574, 1613, 1614, 1655, 1654
1575, 1614, 1615, 1656, 1655
1576, 1615, 1616, 1657, 1656
1577, 1616, 1617, 1658, 1657
1578, 1617, 1618, 1659, 1658
1579, 1618, 1619, 1660, 1659
1580, 1619, 1620, 1661, 1660
1581, 1620, 1621, 1662, 1661
1582, 1621, 1622, 1663, 1662
1583, 1622, 1623, 1664, 1663
1584, 1623, 1624, 1665, 1664
1585, 1624, 1625, 1666, 1665
1586, 1625, 1626, 1667, 1666
1587, 1626, 1627, 1668, 1667
1588, 1627, 1628, 1669, 1668
1589, 1628, 1629, 1670, 1669
1590, 1629, 1630, 1671, 1670
1591, 1630, 1631, 1672, 1671
1592, 1631, 1632, 1673, 1672
1593, 1632, 1633, 1674, 1673
1594, 1633, 1634, 1675, 1674
1595, 1634, 1635, 1676, 1675
1596, 1635, 1636, 1677, 1676
1597, 1636, 1637, 1678, 1677
1598, 1637, 1638, 1679, 1678
1599, 1638, 1639, 1680, 1679
1600, 1639, 1640, 1681, 1680
*MATERIAL, NAME=AL
*ELASTIC
70000000000.0, 0.33
*DENSITY
2670.0
*SHELL SECTION, ELSET=EALL, MATERIAL=AL
0.002
*BOUNDARY
1, 1, 6
2, 1, 6
3, 1, 6
4, 1, 6
5, 1, 6
6, 1, 6
7, 1, 6
8, 1, 6
9, 1, 6
10, 1, 6
11, 1, 6
12, 1, 6
13, 1, 6
14, 1, 6
15, 1, 6
16, 1, 6
17, 1, 6
18, 1, 6
19, 1, 6
20, 1, 6
21, 1, 6
22, 1, 6
23, 1, 6
24, 1, 6
25, 1, 6
26, 1, 6
27, 1, 6
28, 1, 6
29, 1, 6
30, 1, 6
31, 1, 6
32, 1, 6
33, 1, 6
34, 1, 6
35, 1, 6
36, 1, 6
37, 1, 6
38, 1, 6
39, 1, 6
40, 1, 6
41, 1, 6
42, 1, 6
82, 1, 6
83, 1, 6
123, 1, 6
124, 1, 6
164, 1, 6
165, 1, 6
205, 1, 6
206, 1, 6
246, 1, 6
247, 1, 6
287, 1, 6
288, 1, 6
328, 1, 6
329, 1, 6
369, 1, 6
370, 1, 6
410, 1, 6
411, 1, 6
451, 1, 6
452, 1, 6
492, 1, 6
493, 1, 6
533, 1, 6
534, 1, 6
574, 1, 6
575, 1, 6
615, 1, 6
616, 1, 6
656, 1, 6
657, 1, 6
697, 1, 6
698, 1, 6
738, 1, 6
739, 1, 6
779, 1, 6
780, 1, 6
820, 1, 6
821, 1, 6
861, 1, 6
862, 1, 6
902, 1, 6
903, 1, 6
943, 1, 6
944, 1, 6
984, 1, 6
985, 1, 6
1025, 1, 6
1026, 1, 6
1066, 1, 6
1067, 1, 6
1107, 1, 6
1108, 1, 6
1148, 1, 6
1149, 1, 6
1189, 1, 6
1190, 1, 6
1230, 1, 6
1231, 1, 6
1271, 1, 6
1272, 1, 6
1312, 1, 6
1313, 1, 6
1353, 1, 6
1354, 1, 6
1394, 1, 6
1395, 1, 6
1435, 1, 6
1436, 1, 6
1476, 1, 6
1477, 1, 6
1517, 1, 6
1518, 1, 6
1558, 1, 6
1559, 1, 6
1599, 1, 6
1600, 1, 6
1640, 1, 6
1641, 1, 6
1642, 1, 6
1643, 1, 6
1644, 1, 6
1645, 1, 6
1646, 1, 6
1647, 1, 6
1648, 1, 6
1649, 1, 6
1650, 1, 6
1651, 1, 6
1652, 1, 6
1653, 1, 6
1654, 1, 6
1655, 1, 6
1656, 1, 6
1657, 1, 6
1658, 1, 6
1659, 1, 6
1660, 1, 6
1661, 1, 6
1662, 1, 6
1663, 1, 6
1664, 1, 6
1665, 1, 6
1666, 1, 6
1667, 1, 6
1668, 1, 6
1669, 1, 6
1670, 1, 6
1671, 1, 6
1672, 1, 6
1673, 1, 6
1674, 1, 6
1675, 1, 6
1676, 1, 6
1677, 1, 6
1678, 1, 6
1679, 1, 6
1680, 1, 6
1681, 1, 6
*STEP
*STATIC
*DLOAD
EALL, GRAV, 9.81, 0., 0., -1.
*NODE FILE
U
*NODE PRINT, NSET=NALL
U
*END STEP
