*HEADING
punch cross-check
*NODE, NSET=NSHEET
1, -20, 0, -1
2, -18, 0, -1
3, -16, 0, -1
4, -14, 0, -1
5, -12, 0, -1
6, -10, 0, -1
7, -8, 0, -1
8, -6, 0, -1
9, -4, 0, -1
10, -2, 0, -1
11, 0, 0, -1
12, 2, 0, -1
13, 4, 0, -1
14, 6, 0, -1
15, 8, 0, -1
16, 10, 0, -1
17, 12, 0, -1
18, 14, 0, -1
19, 16, 0, -1
20, 18, 0, -1
21, 20, 0, -1
22, -20, 2, -1
23, -18, 2, -1
24, -16, 2, -1
25, -14, 2, -1
26, -12, 2, -1
27, -10, 2, -1
28, -8, 2, -1
29, -6, 2, -1
30, -4, 2, -1
31, -2, 2, -1
32, 0, 2, -1
33, 2, 2, -1
34, 4, 2, -1
35, 6, 2, -1
36, 8, 2, -1
37, 10, 2, -1
38, 12, 2, -1
39, 14, 2, -1
40, 16, 2, -1
41, 18, 2, -1
42, 20, 2, -1
43, -20, 0, -0.75
44, -18, 0, -0.75
45, -16, 0, -0.75
46, -14, 0, -0.75
47, -12, 0, -0.75
48, -10, 0, -0.75
49, -8, 0, -0.75
50, -6, 0, -0.75
51, -4, 0, -0.75
52, -2, 0, -0.75
53, 0, 0, -0.75
54, 2, 0, -0.75
55, 4, 0, -0.75
56, 6, 0, -0.75
57, 8, 0, -0.75
58, 10, 0, -0.75
59, 12, 0, -0.75
60, 14, 0, -0.75
61, 16, 0, -0.75
62, 18, 0, -0.75
63, 20, 0, -0.75
64, -20, 2, -0.75
65, -18, 2, -0.75
66, -16, 2, -0.75
67, -14, 2, -0.75
68, -12, 2, -0.75
69, -10, 2, -0.75
70, -8, 2, -0.75
71, -6, 2, -0.75
72, -4, 2, -0.75
73, -2, 2, -0.75
74, 0, 2, -0.75
75, 2, 2, -0.75
76, 4, 2, -0.75
77, 6, 2, -0.75
78, 8, 2, -0.75
79, 10, 2, -0.75
80, 12, 2, -0.75
81, 14, 2, -0.75
82, 16, 2, -0.75
83, 18, 2, -0.75
84, 20, 2, -0.75
85, -20, 0, -0.5
86, -18, 0, -0.5
87, -16, 0, -0.5
88, -14, 0, -0.5
89, -12, 0, -0.5
90, -10, 0, -0.5
91, -8, 0, -0.5
92, -6, 0, -0.5
93, -4, 0, -0.5
94, -2, 0, -0.5
95, 0, 0, -0.5
96, 2, 0, -0.5
97, 4, 0, -0.5
98, 6, 0, -0.5
99, 8, 0, -0.5
100, 10, 0, -0.5
101, 12, 0, -0.5
102, 14, 0, -0.5
103, 16, 0, -0.5
104, 18, 0, -0.5
105, 20, 0, -0.5
106, -20, 2, -0.5
107, -18, 2, -0.5
108, -16, 2, -0.5
109, -14, 2, -0.5
110, -12, 2, -0.5
111, -10, 2, -0.5
112, -8, 2, -0.5
113, -6, 2, -0.5
114, -4, 2, -0.5
115, -2, 2, -0.5
116, 0, 2, -0.5
117, 2, 2, -0.5
118, 4, 2, -0.5
119, 6, 2, -0.5
120, 8, 2, -0.5
121, 10, 2, -0.5
122, 12, 2, -0.5
123, 14, 2, -0.5
124, 16, 2, -0.5
125, 18, 2, -0.5
126, 20, 2, -0.5
127, -20, 0, -0.25
128, -18, 0, -0.25
129, -16, 0, -0.25
130, -14, 0, -0.25
131, -12, 0, -0.25
132, -10, 0, -0.25
133, -8, 0, -0.25
134, -6, 0, -0.25
135, -4, 0, -0.25
136, -2, 0, -0.25
137, 0, 0, -0.25
138, 2, 0, -0.25
139, 4, 0, -0.25
140, 6, 0, -0.25
141, 8, 0, -0.25
142, 10, 0, -0.25
143, 12, 0, -0.25
144, 14, 0, -0.25
145, 16, 0, -0.25
146, 18, 0, -0.25
147, 20, 0, -0.25
148, -20, 2, -0.25
149, -18, 2, -0.25
150, -16, 2, -0.25
151, -14, 2, -0.25
152, -12, 2, -0.25
153, -10, 2, -0.25
154, -8, 2, -0.25
155, -6, 2, -0.25
156, -4, 2, -0.25
157, -2, 2, -0.25
158, 0, 2, -0.25
159, 2, 2, -0.25
160, 4, 2, -0.25
161, 6, 2, -0.25
162, 8, 2, -0.25
163, 10, 2, -0.25
164, 12, 2, -0.25
165, 14, 2, -0.25
166, 16, 2, -0.25
167, 18, 2, -0.25
168, 20, 2, -0.25
169, -20, 0, 0
170, -18, 0, 0
171, -16, 0, 0
172, -14, 0, 0
173, -12, 0, 0
174, -10, 0, 0
175, -8, 0, 0
176, -6, 0, 0
177, -4, 0, 0
178, -2, 0, 0
179, 0, 0, 0
180, 2, 0, 0
181, 4, 0, 0
182, 6, 0, 0
183, 8, 0, 0
184, 10, 0, 0
185, 12, 0, 0
186, 14, 0, 0
187, 16, 0, 0
188, 18, 0, 0
189, 20, 0, 0
190, -20, 2, 0
191, -18, 2, 0
192, -16, 2, 0
193, -14, 2, 0
194, -12, 2, 0
195, -10, 2, 0
196, -8, 2, 0
197, -6, 2, 0
198, -4, 2, 0
199, -2, 2, 0
200, 0, 2, 0
201, 2, 2, 0
202, 4, 2, 0
203, 6, 2, 0
204, 8, 2, 0
205, 10, 2, 0
206, 12, 2, 0
207, 14, 2, 0
208, 16, 2, 0
209, 18, 2, 0
210, 20, 2, 0
*NODE, NSET=PUNCH
211, -3.93923101205, -1, 4.69459271067
212, -3.95075336238, -1, 4.62573786016
213, -3.96107227497, -1, 4.55669240384
214, -3.97018460657, -1, 4.48747737362
215, -3.97808758147, -1, 4.41811385307
216, -3.98477879237, -1, 4.34862297099
217, -3.99025620104, -1, 4.27902589498
218, -3.99451813902, -1, 4.20934382497
219, -3.99756330808, -1, 4.13959798681
220, -3.99939078063, -1, 4.06980962575
221, -4, -1, 4
222, -3.99939078063, -1, 3.93019037425
223, -3.99756330808, -1, 3.86040201319
224, -3.99451813902, -1, 3.79065617503
225, -3.99025620104, -1, 3.72097410502
226, -3.98477879237, -1, 3.65137702901
227, -3.97808758147, -1, 3.58188614693
228, -3.97018460657, -1, 3.51252262638
229, -3.96107227497, -1, 3.44330759616
230, -3.95075336238, -1, 3.37426213984
231, -3.93923101205, -1, 3.30540728933
232, -3.92650873379, -1, 3.23676401849
233, -3.91259040294, -1, 3.16835323673
234, -3.89748025914, -1, 3.10019578262
235, -3.8811829051, -1, 3.0323124176
236, -3.86370330516, -1, 2.96472381959
237, -3.84504678375, -1, 2.89745057673
238, -3.82521902385, -1, 2.83051318111
239, -3.80422606518, -1, 2.7639320225
240, -3.7820743024, -1, 2.69772738217
241, -3.75877048314, -1, 2.6319194267
242, -3.73432170599, -1, 2.56652820182
243, -3.70873541827, -1, 2.50157362634
244, -3.68201941381, -1, 2.43707548604
245, -3.65418183057, -1, 2.3730534277
246, -3.62523114815, -1, 2.30952695304
247, -3.5951761852, -1, 2.24651541284
248, -3.56402609675, -1, 2.18403800104
249, -3.53179037144, -1, 2.12211374886
250, -3.49847882856, -1, 2.06076151901
251, -3.46410161514, -1, 2
252, -3.42866920281, -1, 1.93984770036
253, -3.39219238463, -1, 1.88032294307
254, -3.35468227178, -1, 1.82144385994
255, -3.31615029022, -1, 1.76322838612
256, -3.27660817716, -1, 1.7056942546
257, -3.2360679775, -1, 1.64885899083
258, -3.19454204019, -1, 1.59273990739
259, -3.15204301443, -1, 1.5373540987
260, -3.10858384583, -1, 1.4827184358
261, -3.06417777248, -1, 1.42884956125
262, -3.01883832089, -1, 1.37576388404
263, -2.97257930191, -1, 1.32347757456
264, -2.92541480648, -1, 1.27200655975
265, -2.87735920135, -1, 1.22136651816
266, -2.82842712475, -1, 1.17157287525
267, -2.77863348184, -1, 1.12264079865
268, -2.72799344025, -1, 1.07458519352
269, -2.67652242544, -1, 1.02742069809
270, -2.62423611596, -1, 0.981161679109
271, -2.57115043875, -1, 0.935822227524
272, -2.5172815642, -1, 0.891416154172
273, -2.4626459013, -1, 0.847956985573
274, -2.40726009261, -1, 0.805457959811
275, -2.35114100917, -1, 0.7639320225
276, -2.2943057454, -1, 0.723391822844
277, -2.23677161388, -1, 0.68384970978
278, -2.17855614006, -1, 0.645317728218
279, -2.11967705693, -1, 0.607807615374
280, -2.06015229964, -1, 0.571330797192
281, -2, -1, 0.535898384862
282, -1.93923848099, -1, 0.501521171442
283, -1.87788625114, -1, 0.468209628564
284, -1.81596199896, -1, 0.435973903247
285, -1.75348458716, -1, 0.404823814803
286, -1.69047304696, -1, 0.374768851853
287, -1.6269465723, -1, 0.34581816943
288, -1.56292451396, -1, 0.31798058619
289, -1.49842637366, -1, 0.291264581733
290, -1.43347179818, -1, 0.265678294011
291, -1.3680805733, -1, 0.241229516856
292, -1.30227261783, -1, 0.217925697603
293, -1.2360679775, -1, 0.195773934819
294, -1.16948681889, -1, 0.174780976148
295, -1.10254942327, -1, 0.154953216247
296, -1.03527618041, -1, 0.136296694844
297, -0.967687582399, -1, 0.118817094896
298, -0.899804217375, -1, 0.102519740859
299, -0.831646763271, -1, 0.0874095970648
300, -0.763235981506, -1, 0.0734912662093
301, -0.694592710668, -1, 0.0607689879512
302, -0.625737860161, -1, 0.0492466376194
303, -0.55669240384, -1, 0.0389277250337
304, -0.487477373621, -1, 0.0298153934347
305, -0.418113853071, -1, 0.0219124185269
306, -0.348622970991, -1, 0.015221207633
307, -0.279025894977, -1, 0.0097437989607
308, -0.209343824972, -1, 0.0054818609817
309, -0.13959798681, -1, 0.00243669192362
310, -0.0698096257491, -1, 0.000609219374435
311, 0, -1, 0
312, 0.0698096257491, -1, 0.000609219374435
313, 0.13959798681, -1, 0.00243669192362
314, 0.209343824972, -1, 0.0054818609817
315, 0.279025894977, -1, 0.0097437989607
316, 0.348622970991, -1, 0.015221207633
317, 0.418113853071, -1, 0.0219124185269
318, 0.487477373621, -1, 0.0298153934347
319, 0.55669240384, -1, 0.0389277250337
320, 0.625737860161, -1, 0.0492466376194
321, 0.694592710668, -1, 0.0607689879512
322, 0.763235981506, -1, 0.0734912662093
323, 0.831646763271, -1, 0.0874095970648
324, 0.899804217375, -1, 0.102519740859
325, 0.967687582399, -1, 0.118817094896
326, 1.03527618041, -1, 0.136296694844
327, 1.10254942327, -1, 0.154953216247
328, 1.16948681889, -1, 0.174780976148
329, 1.2360679775, -1, 0.195773934819
330, 1.30227261783, -1, 0.217925697603
331, 1.3680805733, -1, 0.241229516856
332, 1.43347179818, -1, 0.265678294011
333, 1.49842637366, -1, 0.291264581733
334, 1.56292451396, -1, 0.31798058619
335, 1.6269465723, -1, 0.34581816943
336, 1.69047304696, -1, 0.374768851853
337, 1.75348458716, -1, 0.404823814803
338, 1.81596199896, -1, 0.435973903247
339, 1.87788625114, -1, 0.468209628564
340, 1.93923848099, -1, 0.501521171442
341, 2, -1, 0.535898384862
342, 2.06015229964, -1, 0.571330797192
343, 2.11967705693, -1, 0.607807615374
344, 2.17855614006, -1, 0.645317728218
345, 2.23677161388, -1, 0.68384970978
346, 2.2943057454, -1, 0.723391822844
347, 2.35114100917, -1, 0.7639320225
348, 2.40726009261, -1, 0.805457959811
349, 2.4626459013, -1, 0.847956985573
350, 2.5172815642, -1, 0.891416154172
351, 2.57115043875, -1, 0.935822227524
352, 2.62423611596, -1, 0.981161679109
353, 2.67652242544, -1, 1.02742069809
354, 2.72799344025, -1, 1.07458519352
355, 2.77863348184, -1, 1.12264079865
356, 2.82842712475, -1, 1.17157287525
357, 2.87735920135, -1, 1.22136651816
358, 2.92541480648, -1, 1.27200655975
359, 2.97257930191, -1, 1.32347757456
360, 3.01883832089, -1, 1.37576388404
361, 3.06417777248, -1, 1.42884956125
362, 3.10858384583, -1, 1.4827184358
363, 3.15204301443, -1, 1.5373540987
364, 3.19454204019, -1, 1.59273990739
365, 3.2360679775, -1, 1.64885899083
366, 3.27660817716, -1, 1.7056942546
367, 3.31615029022, -1, 1.76322838612
368, 3.35468227178, -1, 1.82144385994
369, 3.39219238463, -1, 1.88032294307
370, 3.42866920281, -1, 1.93984770036
371, 3.46410161514, -1, 2
372, 3.49847882856, -1, 2.06076151901
373, 3.53179037144, -1, 2.12211374886
374, 3.56402609675, -1, 2.18403800104
375, 3.5951761852, -1, 2.24651541284
376, 3.62523114815, -1, 2.30952695304
377, 3.65418183057, -1, 2.3730534277
378, 3.68201941381, -1, 2.43707548604
379, 3.70873541827, -1, 2.50157362634
380, 3.73432170599, -1, 2.56652820182
381, 3.75877048314, -1, 2.6319194267
382, 3.7820743024, -1, 2.69772738217
383, 3.80422606518, -1, 2.7639320225
384, 3.82521902385, -1, 2.83051318111
385, 3.84504678375, -1, 2.89745057673
386, 3.86370330516, -1, 2.96472381959
387, 3.8811829051, -1, 3.0323124176
388, 3.89748025914, -1, 3.10019578262
389, 3.91259040294, -1, 3.16835323673
390, 3.92650873379, -1, 3.23676401849
391, 3.93923101205, -1, 3.30540728933
392, 3.95075336238, -1, 3.37426213984
393, 3.96107227497, -1, 3.44330759616
394, 3.97018460657, -1, 3.51252262638
395, 3.97808758147, -1, 3.58188614693
396, 3.98477879237, -1, 3.65137702901
397, 3.99025620104, -1, 3.72097410502
398, 3.99451813902, -1, 3.79065617503
399, 3.99756330808, -1, 3.86040201319
400, 3.99939078063, -1, 3.93019037425
401, 4, -1, 4
402, 3.99939078063, -1, 4.06980962575
403, 3.99756330808, -1, 4.13959798681
404, 3.99451813902, -1, 4.20934382497
405, 3.99025620104, -1, 4.27902589498
406, 3.98477879237, -1, 4.34862297099
407, 3.97808758147, -1, 4.41811385307
408, 3.97018460657, -1, 4.48747737362
409, 3.96107227497, -1, 4.55669240384
410, 3.95075336238, -1, 4.62573786016
411, 3.93923101205, -1, 4.69459271067
412, -3.93923101205, 3, 4.69459271067
413, -3.95075336238, 3, 4.62573786016
414, -3.96107227497, 3, 4.55669240384
415, -3.97018460657, 3, 4.48747737362
416, -3.97808758147, 3, 4.41811385307
417, -3.98477879237, 3, 4.34862297099
418, -3.99025620104, 3, 4.27902589498
419, -3.99451813902, 3, 4.20934382497
420, -3.99756330808, 3, 4.13959798681
421, -3.99939078063, 3, 4.06980962575
422, -4, 3, 4
423, -3.99939078063, 3, 3.93019037425
424, -3.99756330808, 3, 3.86040201319
425, -3.99451813902, 3, 3.79065617503
426, -3.99025620104, 3, 3.72097410502
427, -3.98477879237, 3, 3.65137702901
428, -3.97808758147, 3, 3.58188614693
429, -3.97018460657, 3, 3.51252262638
430, -3.96107227497, 3, 3.44330759616
431, -3.95075336238, 3, 3.37426213984
432, -3.93923101205, 3, 3.30540728933
433, -3.92650873379, 3, 3.23676401849
434, -3.91259040294, 3, 3.16835323673
435, -3.89748025914, 3, 3.10019578262
436, -3.8811829051, 3, 3.0323124176
437, -3.86370330516, 3, 2.96472381959
438, -3.84504678375, 3, 2.89745057673
439, -3.82521902385, 3, 2.83051318111
440, -3.80422606518, 3, 2.7639320225
441, -3.7820743024, 3, 2.69772738217
442, -3.75877048314, 3, 2.6319194267
443, -3.73432170599, 3, 2.56652820182
444, -3.70873541827, 3, 2.50157362634
445, -3.68201941381, 3, 2.43707548604
446, -3.65418183057, 3, 2.3730534277
447, -3.62523114815, 3, 2.30952695304
448, -3.5951761852, 3, 2.24651541284
449, -3.56402609675, 3, 2.18403800104
450, -3.53179037144, 3, 2.12211374886
451, -3.49847882856, 3, 2.06076151901
452, -3.46410161514, 3, 2
453, -3.42866920281, 3, 1.93984770036
454, -3.39219238463, 3, 1.88032294307
455, -3.35468227178, 3, 1.82144385994
456, -3.31615029022, 3, 1.76322838612
457, -3.27660817716, 3, 1.7056942546
458, -3.2360679775, 3, 1.64885899083
459, -3.19454204019, 3, 1.59273990739
460, -3.15204301443, 3, 1.5373540987
461, -3.10858384583, 3, 1.4827184358
462, -3.06417777248, 3, 1.42884956125
463, -3.01883832089, 3, 1.37576388404
464, -2.97257930191, 3, 1.32347757456
465, -2.92541480648, 3, 1.27200655975
466, -2.87735920135, 3, 1.22136651816
467, -2.82842712475, 3, 1.17157287525
468, -2.77863348184, 3, 1.12264079865
469, -2.72799344025, 3, 1.07458519352
470, -2.67652242544, 3, 1.02742069809
471, -2.62423611596, 3, 0.981161679109
472, -2.57115043875, 3, 0.935822227524
473, -2.5172815642, 3, 0.891416154172
474, -2.4626459013, 3, 0.847956985573
475, -2.40726009261, 3, 0.805457959811
476, -2.35114100917, 3, 0.7639320225
477, -2.2943057454, 3, 0.723391822844
478, -2.23677161388, 3, 0.68384970978
479, -2.17855614006, 3, 0.645317728218
480, -2.11967705693, 3, 0.607807615374
481, -2.06015229964, 3, 0.571330797192
482, -2, 3, 0.535898384862
483, -1.93923848099, 3, 0.501521171442
484, -1.87788625114, 3, 0.468209628564
485, -1.81596199896, 3, 0.435973903247
486, -1.75348458716, 3, 0.404823814803
487, -1.69047304696, 3, 0.374768851853
488, -1.6269465723, 3, 0.34581816943
489, -1.56292451396, 3, 0.31798058619
490, -1.49842637366, 3, 0.291264581733
491, -1.43347179818, 3, 0.265678294011
492, -1.3680805733, 3, 0.241229516856
493, -1.30227261783, 3, 0.217925697603
494, -1.2360679775, 3, 0.195773934819
495, -1.16948681889, 3, 0.174780976148
496, -1.10254942327, 3, 0.154953216247
497, -1.03527618041, 3, 0.136296694844
498, -0.967687582399, 3, 0.118817094896
499, -0.899804217375, 3, 0.102519740859
500, -0.831646763271, 3, 0.0874095970648
501, -0.763235981506, 3, 0.0734912662093
502, -0.694592710668, 3, 0.0607689879512
503, -0.625737860161, 3, 0.0492466376194
504, -0.55669240384, 3, 0.0389277250337
505, -0.487477373621, 3, 0.0298153934347
506, -0.418113853071, 3, 0.0219124185269
507, -0.348622970991, 3, 0.015221207633
508, -0.279025894977, 3, 0.0097437989607
509, -0.209343824972, 3, 0.0054818609817
510, -0.13959798681, 3, 0.00243669192362
511, -0.0698096257491, 3, 0.000609219374435
512, 0, 3, 0
513, 0.0698096257491, 3, 0.000609219374435
514, 0.13959798681, 3, 0.00243669192362
515, 0.209343824972, 3, 0.0054818609817
516, 0.279025894977, 3, 0.0097437989607
517, 0.348622970991, 3, 0.015221207633
518, 0.418113853071, 3, 0.0219124185269
519, 0.487477373621, 3, 0.0298153934347
520, 0.55669240384, 3, 0.0389277250337
521, 0.625737860161, 3, 0.0492466376194
522, 0.694592710668, 3, 0.0607689879512
523, 0.763235981506, 3, 0.0734912662093
524, 0.831646763271, 3, 0.0874095970648
525, 0.899804217375, 3, 0.102519740859
526, 0.967687582399, 3, 0.118817094896
527, 1.03527618041, 3, 0.136296694844
528, 1.10254942327, 3, 0.154953216247
529, 1.16948681889, 3, 0.174780976148
530, 1.2360679775, 3, 0.195773934819
531, 1.30227261783, 3, 0.217925697603
532, 1.3680805733, 3, 0.241229516856
533, 1.43347179818, 3, 0.265678294011
534, 1.49842637366, 3, 0.291264581733
535, 1.56292451396, 3, 0.31798058619
536, 1.6269465723, 3, 0.34581816943
537, 1.69047304696, 3, 0.374768851853
538, 1.75348458716, 3, 0.404823814803
539, 1.81596199896, 3, 0.435973903247
540, 1.87788625114, 3, 0.468209628564
541, 1.93923848099, 3, 0.501521171442
542, 2, 3, 0.535898384862
543, 2.06015229964, 3, 0.571330797192
544, 2.11967705693, 3, 0.607807615374
545, 2.17855614006, 3, 0.645317728218
546, 2.23677161388, 3, 0.68384970978
547, 2.2943057454, 3, 0.723391822844
548, 2.35114100917, 3, 0.7639320225
549, 2.40726009261, 3, 0.805457959811
550, 2.4626459013, 3, 0.847956985573
551, 2.5172815642, 3, 0.891416154172
552, 2.57115043875, 3, 0.935822227524
553, 2.62423611596, 3, 0.981161679109
554, 2.67652242544, 3, 1.02742069809
555, 2.72799344025, 3, 1.07458519352
556, 2.77863348184, 3, 1.12264079865
557, 2.82842712475, 3, 1.17157287525
558, 2.87735920135, 3, 1.22136651816
559, 2.92541480648, 3, 1.27200655975
560, 2.97257930191, 3, 1.32347757456
561, 3.01883832089, 3, 1.37576388404
562, 3.06417777248, 3, 1.42884956125
563, 3.10858384583, 3, 1.4827184358
564, 3.15204301443, 3, 1.5373540987
565, 3.19454204019, 3, 1.59273990739
566, 3.2360679775, 3, 1.64885899083
567, 3.27660817716, 3, 1.7056942546
568, 3.31615029022, 3, 1.76322838612
569, 3.35468227178, 3, 1.82144385994
570, 3.39219238463, 3, 1.88032294307
571, 3.42866920281, 3, 1.93984770036
572, 3.46410161514, 3, 2
573, 3.49847882856, 3, 2.06076151901
574, 3.53179037144, 3, 2.12211374886
575, 3.56402609675, 3, 2.18403800104
576, 3.5951761852, 3, 2.24651541284
577, 3.62523114815, 3, 2.30952695304
578, 3.65418183057, 3, 2.3730534277
579, 3.68201941381, 3, 2.43707548604
580, 3.70873541827, 3, 2.50157362634
581, 3.73432170599, 3, 2.56652820182
582, 3.75877048314, 3, 2.6319194267
583, 3.7820743024, 3, 2.69772738217
584, 3.80422606518, 3, 2.7639320225
585, 3.82521902385, 3, 2.83051318111
586, 3.84504678375, 3, 2.89745057673
587, 3.86370330516, 3, 2.96472381959
588, 3.8811829051, 3, 3.0323124176
589, 3.89748025914, 3, 3.10019578262
590, 3.91259040294, 3, 3.16835323673
591, 3.92650873379, 3, 3.23676401849
592, 3.93923101205, 3, 3.30540728933
593, 3.95075336238, 3, 3.37426213984
594, 3.96107227497, 3, 3.44330759616
595, 3.97018460657, 3, 3.51252262638
596, 3.97808758147, 3, 3.58188614693
597, 3.98477879237, 3, 3.65137702901
598, 3.99025620104, 3, 3.72097410502
599, 3.99451813902, 3, 3.79065617503
600, 3.99756330808, 3, 3.86040201319
601, 3.99939078063, 3, 3.93019037425
602, 4, 3, 4
603, 3.99939078063, 3, 4.06980962575
604, 3.99756330808, 3, 4.13959798681
605, 3.99451813902, 3, 4.20934382497
606, 3.99025620104, 3, 4.27902589498
607, 3.98477879237, 3, 4.34862297099
608, 3.97808758147, 3, 4.41811385307
609, 3.97018460657, 3, 4.48747737362
610, 3.96107227497, 3, 4.55669240384
611, 3.95075336238, 3, 4.62573786016
612, 3.93923101205, 3, 4.69459271067
613, -3.44682713554, -1, 4.60776862183
614, -3.45690919208, -1, 4.54752062764
615, -3.4659382406, -1, 4.48710585336
616, -3.47391153074, -1, 4.42654270192
617, -3.48082663379, -1, 4.36584962144
618, -3.48668144332, -1, 4.30504509962
619, -3.49147417591, -1, 4.2441476581
620, -3.49520337164, -1, 4.18317584685
621, -3.49786789457, -1, 4.12214823846
622, -3.49946693305, -1, 4.06108342253
623, -3.5, -1, 4
624, -3.49946693305, -1, 3.93891657747
625, -3.49786789457, -1, 3.87785176154
626, -3.49520337164, -1, 3.81682415315
627, -3.49147417591, -1, 3.7558523419
628, -3.48668144332, -1, 3.69495490038
629, -3.48082663379, -1, 3.63415037856
630, -3.47391153074, -1, 3.57345729808
631, -3.4659382406, -1, 3.51289414664
632, -3.45690919208, -1, 3.45247937236
633, -3.44682713554, -1, 3.39223137817
634, -3.43569514207, -1, 3.33216851618
635, -3.42351660257, -1, 3.27230908214
636, -3.41029522675, -1, 3.2126713098
637, -3.39603504197, -1, 3.1532733654
638, -3.38074039201, -1, 3.09413334214
639, -3.36441593578, -1, 3.03526925464
640, -3.34706664587, -1, 2.97669903347
641, -3.32869780703, -1, 2.91844051969
642, -3.3093150146, -1, 2.8605114594
643, -3.28892417275, -1, 2.80292949836
644, -3.26753149274, -1, 2.74571217659
645, -3.24514349098, -1, 2.68887692304
646, -3.22176698708, -1, 2.63244105029
647, -3.19740910175, -1, 2.57642174923
648, -3.17207725463, -1, 2.52083608391
649, -3.14577916205, -1, 2.46570098624
650, -3.11852283466, -1, 2.41103325091
651, -3.09031657501, -1, 2.35684953025
652, -3.06116897499, -1, 2.30316632914
653, -3.03108891325, -1, 2.25
654, -3.00008555246, -1, 2.19736673781
655, -2.96816833655, -1, 2.14528257518
656, -2.93534698781, -1, 2.09376337745
657, -2.90163150394, -1, 2.04282483785
658, -2.86703215501, -1, 1.99248247277
659, -2.83155948031, -1, 1.94275161698
660, -2.79522428517, -1, 1.89364741897
661, -2.75803763762, -1, 1.84518483636
662, -2.7200108651, -1, 1.79737863133
663, -2.68115555092, -1, 1.7502433661
664, -2.64148353078, -1, 1.70379339853
665, -2.60100688917, -1, 1.65804287774
666, -2.55973795567, -1, 1.61300573978
667, -2.51768930119, -1, 1.56869570339
668, -2.47487373415, -1, 1.52512626585
669, -2.43130429661, -1, 1.48231069881
670, -2.38699426022, -1, 1.44026204433
671, -2.34195712226, -1, 1.39899311083
672, -2.29620660147, -1, 1.35851646922
673, -2.2497566339, -1, 1.31884444908
674, -2.20262136867, -1, 1.2799891349
675, -2.15481516364, -1, 1.24196236238
676, -2.10635258103, -1, 1.20477571483
677, -2.05724838302, -1, 1.16844051969
678, -2.00751752723, -1, 1.13296784499
679, -1.95717516215, -1, 1.09836849606
680, -1.90623662255, -1, 1.06465301219
681, -1.85471742482, -1, 1.03183166345
682, -1.80263326219, -1, 0.999914447543
683, -1.75, -1, 0.968911086754
684, -1.69683367086, -1, 0.938831025012
685, -1.64315046975, -1, 0.909683424994
686, -1.58896674909, -1, 0.881477165341
687, -1.53429901376, -1, 0.854220837953
688, -1.47916391609, -1, 0.827922745372
689, -1.42357825077, -1, 0.802590898251
690, -1.36755894971, -1, 0.778233012916
691, -1.31112307696, -1, 0.754856509016
692, -1.25428782341, -1, 0.73246850726
693, -1.19707050164, -1, 0.711075827249
694, -1.1394885406, -1, 0.690684985402
695, -1.08155948031, -1, 0.671302192967
696, -1.02330096653, -1, 0.652933354129
697, -0.964730745359, -1, 0.635584064216
698, -0.905866657859, -1, 0.619259607988
699, -0.846726634599, -1, 0.603964958034
700, -0.787328690204, -1, 0.589704773252
701, -0.727690917862, -1, 0.576483397432
702, -0.667831483818, -1, 0.564304857933
703, -0.607768621834, -1, 0.553172864457
704, -0.547520627641, -1, 0.543090807917
705, -0.48710585336, -1, 0.534061759405
706, -0.426542701918, -1, 0.526088469255
707, -0.365849621437, -1, 0.519173366211
708, -0.305045099617, -1, 0.513318556679
709, -0.244147658104, -1, 0.508525824091
710, -0.18317584685, -1, 0.504796628359
711, -0.122148238459, -1, 0.502132105433
712, -0.0610834225305, -1, 0.500533066953
713, 0, -1, 0.5
714, 0.0610834225305, -1, 0.500533066953
715, 0.122148238459, -1, 0.502132105433
716, 0.18317584685, -1, 0.504796628359
717, 0.244147658104, -1, 0.508525824091
718, 0.305045099617, -1, 0.513318556679
719, 0.365849621437, -1, 0.519173366211
720, 0.426542701918, -1, 0.526088469255
721, 0.48710585336, -1, 0.534061759405
722, 0.547520627641, -1, 0.543090807917
723, 0.607768621834, -1, 0.553172864457
724, 0.667831483818, -1, 0.564304857933
725, 0.727690917862, -1, 0.576483397432
726, 0.787328690204, -1, 0.589704773252
727, 0.846726634599, -1, 0.603964958034
728, 0.905866657859, -1, 0.619259607988
729, 0.964730745359, -1, 0.635584064216
730, 1.02330096653, -1, 0.652933354129
731, 1.08155948031, -1, 0.671302192967
732, 1.1394885406, -1, 0.690684985402
733, 1.19707050164, -1, 0.711075827249
734, 1.25428782341, -1, 0.73246850726
735, 1.31112307696, -1, 0.754856509016
736, 1.36755894971, -1, 0.778233012916
737, 1.42357825077, -1, 0.802590898251
738, 1.47916391609, -1, 0.827922745372
739, 1.53429901376, -1, 0.854220837953
740, 1.58896674909, -1, 0.881477165341
741, 1.64315046975, -1, 0.909683424994
742, 1.69683367086, -1, 0.938831025012
743, 1.75, -1, 0.968911086754
744, 1.80263326219, -1, 0.999914447543
745, 1.85471742482, -1, 1.03183166345
746, 1.90623662255, -1, 1.06465301219
747, 1.95717516215, -1, 1.09836849606
748, 2.00751752723, -1, 1.13296784499
749, 2.05724838302, -1, 1.16844051969
750, 2.10635258103, -1, 1.20477571483
751, 2.15481516364, -1, 1.24196236238
752, 2.20262136867, -1, 1.2799891349
753, 2.2497566339, -1, 1.31884444908
754, 2.29620660147, -1, 1.35851646922
755, 2.34195712226, -1, 1.39899311083
756, 2.38699426022, -1, 1.44026204433
757, 2.43130429661, -1, 1.48231069881
758, 2.47487373415, -1, 1.52512626585
759, 2.51768930119, -1, 1.56869570339
760, 2.55973795567, -1, 1.61300573978
761, 2.60100688917, -1, 1.65804287774
762, 2.64148353078, -1, 1.70379339853
763, 2.68115555092, -1, 1.7502433661
764, 2.7200108651, -1, 1.79737863133
765, 2.75803763762, -1, 1.84518483636
766, 2.79522428517, -1, 1.89364741897
767, 2.83155948031, -1, 1.94275161698
768, 2.86703215501, -1, 1.99248247277
769, 2.90163150394, -1, 2.04282483785
770, 2.93534698781, -1, 2.09376337745
771, 2.96816833655, -1, 2.14528257518
772, 3.00008555246, -1, 2.19736673781
773, 3.03108891325, -1, 2.25
774, 3.06116897499, -1, 2.30316632914
775, 3.09031657501, -1, 2.35684953025
776, 3.11852283466, -1, 2.41103325091
777, 3.14577916205, -1, 2.46570098624
778, 3.17207725463, -1, 2.52083608391
779, 3.19740910175, -1, 2.57642174923
780, 3.22176698708, -1, 2.63244105029
781, 3.24514349098, -1, 2.68887692304
782, 3.26753149274, -1, 2.74571217659
783, 3.28892417275, -1, 2.80292949836
784, 3.3093150146, -1, 2.8605114594
785, 3.32869780703, -1, 2.91844051969
786, 3.34706664587, -1, 2.97669903347
787, 3.36441593578, -1, 3.03526925464
788, 3.38074039201, -1, 3.09413334214
789, 3.39603504197, -1, 3.1532733654
790, 3.41029522675, -1, 3.2126713098
791, 3.42351660257, -1, 3.27230908214
792, 3.43569514207, -1, 3.33216851618
793, 3.44682713554, -1, 3.39223137817
794, 3.45690919208, -1, 3.45247937236
795, 3.4659382406, -1, 3.51289414664
796, 3.47391153074, -1, 3.57345729808
797, 3.48082663379, -1, 3.63415037856
798, 3.48668144332, -1, 3.69495490038
799, 3.49147417591, -1, 3.7558523419
800, 3.49520337164, -1, 3.81682415315
801, 3.49786789457, -1, 3.87785176154
802, 3.49946693305, -1, 3.93891657747
803, 3.5, -1, 4
804, 3.49946693305, -1, 4.06108342253
805, 3.49786789457, -1, 4.12214823846
806, 3.49520337164, -1, 4.18317584685
807, 3.49147417591, -1, 4.2441476581
808, 3.48668144332, -1, 4.30504509962
809, 3.48082663379, -1, 4.36584962144
810, 3.47391153074, -1, 4.42654270192
811, 3.4659382406, -1, 4.48710585336
812, 3.45690919208, -1, 4.54752062764
813, 3.44682713554, -1, 4.60776862183
814, -3.44682713554, 3, 4.60776862183
815, -3.45690919208, 3, 4.54752062764
816, -3.4659382406, 3, 4.48710585336
817, -3.47391153074, 3, 4.42654270192
818, -3.48082663379, 3, 4.36584962144
819, -3.48668144332, 3, 4.30504509962
820, -3.49147417591, 3, 4.2441476581
821, -3.49520337164, 3, 4.18317584685
822, -3.49786789457, 3, 4.12214823846
823, -3.49946693305, 3, 4.06108342253
824, -3.5, 3, 4
825, -3.49946693305, 3, 3.93891657747
826, -3.49786789457, 3, 3.87785176154
827, -3.49520337164, 3, 3.81682415315
828, -3.49147417591, 3, 3.7558523419
829, -3.48668144332, 3, 3.69495490038
830, -3.48082663379, 3, 3.63415037856
831, -3.47391153074, 3, 3.57345729808
832, -3.4659382406, 3, 3.51289414664
833, -3.45690919208, 3, 3.45247937236
834, -3.44682713554, 3, 3.39223137817
835, -3.43569514207, 3, 3.33216851618
836, -3.42351660257, 3, 3.27230908214
837, -3.41029522675, 3, 3.2126713098
838, -3.39603504197, 3, 3.1532733654
839, -3.38074039201, 3, 3.09413334214
840, -3.36441593578, 3, 3.03526925464
841, -3.34706664587, 3, 2.97669903347
842, -3.32869780703, 3, 2.91844051969
843, -3.3093150146, 3, 2.8605114594
844, -3.28892417275, 3, 2.80292949836
845, -3.26753149274, 3, 2.74571217659
846, -3.24514349098, 3, 2.68887692304
847, -3.22176698708, 3, 2.63244105029
848, -3.19740910175, 3, 2.57642174923
849, -3.17207725463, 3, 2.52083608391
850, -3.14577916205, 3, 2.46570098624
851, -3.11852283466, 3, 2.41103325091
852, -3.09031657501, 3, 2.35684953025
853, -3.06116897499, 3, 2.30316632914
854, -3.03108891325, 3, 2.25
855, -3.00008555246, 3, 2.19736673781
856, -2.96816833655, 3, 2.14528257518
857, -2.93534698781, 3, 2.09376337745
858, -2.90163150394, 3, 2.04282483785
859, -2.86703215501, 3, 1.99248247277
860, -2.83155948031, 3, 1.94275161698
861, -2.79522428517, 3, 1.89364741897
862, -2.75803763762, 3, 1.84518483636
863, -2.7200108651, 3, 1.79737863133
864, -2.68115555092, 3, 1.7502433661
865, -2.64148353078, 3, 1.70379339853
866, -2.60100688917, 3, 1.65804287774
867, -2.55973795567, 3, 1.61300573978
868, -2.51768930119, 3, 1.56869570339
869, -2.47487373415, 3, 1.52512626585
870, -2.43130429661, 3, 1.48231069881
871, -2.38699426022, 3, 1.44026204433
872, -2.34195712226, 3, 1.39899311083
873, -2.29620660147, 3, 1.35851646922
874, -2.2497566339, 3, 1.31884444908
875, -2.20262136867, 3, 1.2799891349
876, -2.15481516364, 3, 1.24196236238
877, -2.10635258103, 3, 1.20477571483
878, -2.05724838302, 3, 1.16844051969
879, -2.00751752723, 3, 1.13296784499
880, -1.95717516215, 3, 1.09836849606
881, -1.90623662255, 3, 1.06465301219
882, -1.85471742482, 3, 1.03183166345
883, -1.80263326219, 3, 0.999914447543
884, -1.75, 3, 0.968911086754
885, -1.69683367086, 3, 0.938831025012
886, -1.64315046975, 3, 0.909683424994
887, -1.58896674909, 3, 0.881477165341
888, -1.53429901376, 3, 0.854220837953
889, -1.47916391609, 3, 0.827922745372
890, -1.42357825077, 3, 0.802590898251
891, -1.36755894971, 3, 0.778233012916
892, -1.31112307696, 3, 0.754856509016
893, -1.25428782341, 3, 0.73246850726
894, -1.19707050164, 3, 0.711075827249
895, -1.1394885406, 3, 0.690684985402
896, -1.08155948031, 3, 0.671302192967
897, -1.02330096653, 3, 0.652933354129
898, -0.964730745359, 3, 0.635584064216
899, -0.905866657859, 3, 0.619259607988
900, -0.846726634599, 3, 0.603964958034
901, -0.787328690204, 3, 0.589704773252
902, -0.727690917862, 3, 0.576483397432
903, -0.667831483818, 3, 0.564304857933
904, -0.607768621834, 3, 0.553172864457
905, -0.547520627641, 3, 0.543090807917
906, -0.48710585336, 3, 0.534061759405
907, -0.426542701918, 3, 0.526088469255
908, -0.365849621437, 3, 0.519173366211
909, -0.305045099617, 3, 0.513318556679
910, -0.244147658104, 3, 0.508525824091
911, -0.18317584685, 3, 0.504796628359
912, -0.122148238459, 3, 0.502132105433
913, -0.0610834225305, 3, 0.500533066953
914, 0, 3, 0.5
915, 0.0610834225305, 3, 0.500533066953
916, 0.122148238459, 3, 0.502132105433
917, 0.18317584685, 3, 0.504796628359
918, 0.244147658104, 3, 0.508525824091
919, 0.305045099617, 3, 0.513318556679
920, 0.365849621437, 3, 0.519173366211
921, 0.426542701918, 3, 0.526088469255
922, 0.48710585336, 3, 0.534061759405
923, 0.547520627641, 3, 0.543090807917
924, 0.607768621834, 3, 0.553172864457
925, 0.667831483818, 3, 0.564304857933
926, 0.727690917862, 3, 0.576483397432
927, 0.787328690204, 3, 0.589704773252
928, 0.846726634599, 3, 0.603964958034
929, 0.905866657859, 3, 0.619259607988
930, 0.964730745359, 3, 0.635584064216
931, 1.02330096653, 3, 0.652933354129
932, 1.08155948031, 3, 0.671302192967
933, 1.1394885406, 3, 0.690684985402
934, 1.19707050164, 3, 0.711075827249
935, 1.25428782341, 3, 0.73246850726
936, 1.31112307696, 3, 0.754856509016
937, 1.36755894971, 3, 0.778233012916
938, 1.42357825077, 3, 0.802590898251
939, 1.47916391609, 3, 0.827922745372
940, 1.53429901376, 3, 0.854220837953
941, 1.58896674909, 3, 0.881477165341
942, 1.64315046975, 3, 0.909683424994
943, 1.69683367086, 3, 0.938831025012
944, 1.75, 3, 0.968911086754
945, 1.80263326219, 3, 0.999914447543
946, 1.85471742482, 3, 1.03183166345
947, 1.90623662255, 3, 1.06465301219
948, 1.95717516215, 3, 1.09836849606
949, 2.00751752723, 3, 1.13296784499
950, 2.05724838302, 3, 1.16844051969
951, 2.10635258103, 3, 1.20477571483
952, 2.15481516364, 3, 1.24196236238
953, 2.20262136867, 3, 1.2799891349
954, 2.2497566339, 3, 1.31884444908
955, 2.29620660147, 3, 1.35851646922
956, 2.34195712226, 3, 1.39899311083
957, 2.38699426022, 3, 1.44026204433
958, 2.43130429661, 3, 1.48231069881
959, 2.47487373415, 3, 1.52512626585
960, 2.51768930119, 3, 1.56869570339
961, 2.55973795567, 3, 1.61300573978
962, 2.60100688917, 3, 1.65804287774
963, 2.64148353078, 3, 1.70379339853
964, 2.68115555092, 3, 1.7502433661
965, 2.7200108651, 3, 1.79737863133
966, 2.75803763762, 3, 1.84518483636
967, 2.79522428517, 3, 1.89364741897
968, 2.83155948031, 3, 1.94275161698
969, 2.86703215501, 3, 1.99248247277
970, 2.90163150394, 3, 2.04282483785
971, 2.93534698781, 3, 2.09376337745
972, 2.96816833655, 3, 2.14528257518
973, 3.00008555246, 3, 2.19736673781
974, 3.03108891325, 3, 2.25
975, 3.06116897499, 3, 2.30316632914
976, 3.09031657501, 3, 2.35684953025
977, 3.11852283466, 3, 2.41103325091
978, 3.14577916205, 3, 2.46570098624
979, 3.17207725463, 3, 2.52083608391
980, 3.19740910175, 3, 2.57642174923
981, 3.22176698708, 3, 2.63244105029
982, 3.24514349098, 3, 2.68887692304
983, 3.26753149274, 3, 2.74571217659
984, 3.28892417275, 3, 2.80292949836
985, 3.3093150146, 3, 2.8605114594
986, 3.32869780703, 3, 2.91844051969
987, 3.34706664587, 3, 2.97669903347
988, 3.36441593578, 3, 3.03526925464
989, 3.38074039201, 3, 3.09413334214
990, 3.39603504197, 3, 3.1532733654
991, 3.41029522675, 3, 3.2126713098
992, 3.42351660257, 3, 3.27230908214
993, 3.43569514207, 3, 3.33216851618
994, 3.44682713554, 3, 3.39223137817
995, 3.45690919208, 3, 3.45247937236
996, 3.4659382406, 3, 3.51289414664
997, 3.47391153074, 3, 3.57345729808
998, 3.48082663379, 3, 3.63415037856
999, 3.48668144332, 3, 3.69495490038
1000, 3.49147417591, 3, 3.7558523419
1001, 3.49520337164, 3, 3.81682415315
1002, 3.49786789457, 3, 3.87785176154
1003, 3.49946693305, 3, 3.93891657747
1004, 3.5, 3, 4
1005, 3.49946693305, 3, 4.06108342253
1006, 3.49786789457, 3, 4.12214823846
1007, 3.49520337164, 3, 4.18317584685
1008, 3.49147417591, 3, 4.2441476581
1009, 3.48668144332, 3, 4.30504509962
1010, 3.48082663379, 3, 4.36584962144
1011, 3.47391153074, 3, 4.42654270192
1012, 3.4659382406, 3, 4.48710585336
1013, 3.45690919208, 3, 4.54752062764
1014, 3.44682713554, 3, 4.60776862183
*ELEMENT, TYPE=C3D8, ELSET=SHEET
1, 1, 2, 23, 22, 43, 44, 65, 64
2, 2, 3, 24, 23, 44, 45, 66, 65
3, 3, 4, 25, 24, 45, 46, 67, 66
4, 4, 5, 26, 25, 46, 47, 68, 67
5, 5, 6, 27, 26, 47, 48, 69, 68
6, 6, 7, 28, 27, 48, 49, 70, 69
7, 7, 8, 29, 28, 49, 50, 71, 70
8, 8, 9, 30, 29, 50, 51, 72, 71
9, 9, 10, 31, 30, 51, 52, 73, 72
10, 10, 11, 32, 31, 52, 53, 74, 73
11, 11, 12, 33, 32, 53, 54, 75, 74
12, 12, 13, 34, 33, 54, 55, 76, 75
13, 13, 14, 35, 34, 55, 56, 77, 76
14, 14, 15, 36, 35, 56, 57, 78, 77
15, 15, 16, 37, 36, 57, 58, 79, 78
16, 16, 17, 38, 37, 58, 59, 80, 79
17, 17, 18, 39, 38, 59, 60, 81, 80
18, 18, 19, 40, 39, 60, 61, 82, 81
19, 19, 20, 41, 40, 61, 62, 83, 82
20, 20, 21, 42, 41, 62, 63, 84, 83
21, 43, 44, 65, 64, 85, 86, 107, 106
22, 44, 45, 66, 65, 86, 87, 108, 107
23, 45, 46, 67, 66, 87, 88, 109, 108
24, 46, 47, 68, 67, 88, 89, 110, 109
25, 47, 48, 69, 68, 89, 90, 111, 110
26, 48, 49, 70, 69, 90, 91, 112, 111
27, 49, 50, 71, 70, 91, 92, 113, 112
28, 50, 51, 72, 71, 92, 93, 114, 113
29, 51, 52, 73, 72, 93, 94, 115, 114
30, 52, 53, 74, 73, 94, 95, 116, 115
31, 53, 54, 75, 74, 95, 96, 117, 116
32, 54, 55, 76, 75, 96, 97, 118, 117
33, 55, 56, 77, 76, 97, 98, 119, 118
34, 56, 57, 78, 77, 98, 99, 120, 119
35, 57, 58, 79, 78, 99, 100, 121, 120
36, 58, 59, 80, 79, 100, 101, 122, 121
37, 59, 60, 81, 80, 101, 102, 123, 122
38, 60, 61, 82, 81, 102, 103, 124, 123
39, 61, 62, 83, 82, 103, 104, 125, 124
40, 62, 63, 84, 83, 104, 105, 126, 125
41, 85, 86, 107, 106, 127, 128, 149, 148
42, 86, 87, 108, 107, 128, 129, 150, 149
43, 87, 88, 109, 108, 129, 130, 151, 150
44, 88, 89, 110, 109, 130, 131, 152, 151
45, 89, 90, 111, 110, 131, 132, 153, 152
46, 90, 91, 112, 111, 132, 133, 154, 153
47, 91, 92, 113, 112, 133, 134, 155, 154
48, 92, 93, 114, 113, 134, 135, 156, 155
49, 93, 94, 115, 114, 135, 136, 157, 156
50, 94, 95, 116, 115, 136, 137, 158, 157
51, 95, 96, 117, 116, 137, 138, 159, 158
52, 96, 97, 118, 117, 138, 139, 160, 159
53, 97, 98, 119, 118, 139, 140, 161, 160
54, 98, 99, 120, 119, 140, 141, 162, 161
55, 99, 100, 121, 120, 141, 142, 163, 162
56, 100, 101, 122, 121, 142, 143, 164, 163
57, 101, 102, 123, 122, 143, 144, 165, 164
58, 102, 103, 124, 123, 144, 145, 166, 165
59, 103, 104, 125, 124, 145, 146, 167, 166
60, 104, 105, 126, 125, 146, 147, 168, 167
61, 127, 128, 149, 148, 169, 170, 191, 190
62, 128, 129, 150, 149, 170, 171, 192, 191
63, 129, 130, 151, 150, 171, 172, 193, 192
64, 130, 131, 152, 151, 172, 173, 194, 193
65, 131, 132, 153, 152, 173, 174, 195, 194
66, 132, 133, 154, 153, 174, 175, 196, 195
67, 133, 134, 155, 154, 175, 176, 197, 196
68, 134, 135, 156, 155, 176, 177, 198, 197
69, 135, 136, 157, 156, 177, 178, 199, 198
70, 136, 137, 158, 157, 178, 179, 200, 199
71, 137, 138, 159, 158, 179, 180, 201, 200
72, 138, 139, 160, 159, 180, 181, 202, 201
73, 139, 140, 161, 160, 181, 182, 203, 202
74, 140, 141, 162, 161, 182, 183, 204, 203
75, 141, 142, 163, 162, 183, 184, 205, 204
76, 142, 143, 164, 163, 184, 185, 206, 205
77, 143, 144, 165, 164, 185, 186, 207, 206
78, 144, 145, 166, 165, 186, 187, 208, 207
79, 145, 146, 167, 166, 187, 188, 209, 208
80, 146, 147, 168, 167, 188, 189, 210, 209
*ELEMENT, TYPE=C3D8, ELSET=TOOL
81, 211, 212, 413, 412, 613, 614, 815, 814
82, 212, 213, 414, 413, 614, 615, 816, 815
83, 213, 214, 415, 414, 615, 616, 817, 816
84, 214, 215, 416, 415, 616, 617, 818, 817
85, 215, 216, 417, 416, 617, 618, 819, 818
86, 216, 217, 418, 417, 618, 619, 820, 819
87, 217, 218, 419, 418, 619, 620, 821, 820
88, 218, 219, 420, 419, 620, 621, 822, 821
89, 219, 220, 421, 420, 621, 622, 823, 822
90, 220, 221, 422, 421, 622, 623, 824, 823
91, 221, 222, 423, 422, 623, 624, 825, 824
92, 222, 223, 424, 423, 624, 625, 826, 825
93, 223, 224, 425, 424, 625, 626, 827, 826
94, 224, 225, 426, 425, 626, 627, 828, 827
95, 225, 226, 427, 426, 627, 628, 829, 828
96, 226, 227, 428, 427, 628, 629, 830, 829
97, 227, 228, 429, 428, 629, 630, 831, 830
98, 228, 229, 430, 429, 630, 631, 832, 831
99, 229, 230, 431, 430, 631, 632, 833, 832
100, 230, 231, 432, 431, 632, 633, 834, 833
101, 231, 232, 433, 432, 633, 634, 835, 834
102, 232, 233, 434, 433, 634, 635, 836, 835
103, 233, 234, 435, 434, 635, 636, 837, 836
104, 234, 235, 436, 435, 636, 637, 838, 837
105, 235, 236, 437, 436, 637, 638, 839, 838
106, 236, 237, 438, 437, 638, 639, 840, 839
107, 237, 238, 439, 438, 639, 640, 841, 840
108, 238, 239, 440, 439, 640, 641, 842, 841
109, 239, 240, 441, 440, 641, 642, 843, 842
110, 240, 241, 442, 441, 642, 643, 844, 843
111, 241, 242, 443, 442, 643, 644, 845, 844
112, 242, 243, 444, 443, 644, 645, 846, 845
113, 243, 244, 445, 444, 645, 646, 847, 846
114, 244, 245, 446, 445, 646, 647, 848, 847
115, 245, 246, 447, 446, 647, 648, 849, 848
116, 246, 247, 448, 447, 648, 649, 850, 849
117, 247, 248, 449, 448, 649, 650, 851, 850
118, 248, 249, 450, 449, 650, 651, 852, 851
119, 249, 250, 451, 450, 651, 652, 853, 852
120, 250, 251, 452, 451, 652, 653, 854, 853
121, 251, 252, 453, 452, 653, 654, 855, 854
122, 252, 253, 454, 453, 654, 655, 856, 855
123, 253, 254, 455, 454, 655, 656, 857, 856
124, 254, 255, 456, 455, 656, 657, 858, 857
125, 255, 256, 457, 456, 657, 658, 859, 858
126, 256, 257, 458, 457, 658, 659, 860, 859
127, 257, 258, 459, 458, 659, 660, 861, 860
128, 258, 259, 460, 459, 660, 661, 862, 861
129, 259, 260, 461, 460, 661, 662, 863, 862
130, 260, 261, 462, 461, 662, 663, 864, 863
131, 261, 262, 463, 462, 663, 664, 865, 864
132, 262, 263, 464, 463, 664, 665, 866, 865
133, 263, 264, 465, 464, 665, 666, 867, 866
134, 264, 265, 466, 465, 666, 667, 868, 867
135, 265, 266, 467, 466, 667, 668, 869, 868
136, 266, 267, 468, 467, 668, 669, 870, 869
137, 267, 268, 469, 468, 669, 670, 871, 870
138, 268, 269, 470, 469, 670, 671, 872, 871
139, 269, 270, 471, 470, 671, 672, 873, 872
140, 270, 271, 472, 471, 672, 673, 874, 873
141, 271, 272, 473, 472, 673, 674, 875, 874
142, 272, 273, 474, 473, 674, 675, 876, 875
143, 273, 274, 475, 474, 675, 676, 877, 876
144, 274, 275, 476, 475, 676, 677, 878, 877
145, 275, 276, 477, 476, 677, 678, 879, 878
146, 276, 277, 478, 477, 678, 679, 880, 879
147, 277, 278, 479, 478, 679, 680, 881, 880
148, 278, 279, 480, 479, 680, 681, 882, 881
149, 279, 280, 481, 480, 681, 682, 883, 882
150, 280, 281, 482, 481, 682, 683, 884, 883
151, 281, 282, 483, 482, 683, 684, 885, 884
152, 282, 283, 484, 483, 684, 685, 886, 885
153, 283, 284, 485, 484, 685, 686, 887, 886
154, 284, 285, 486, 485, 686, 687, 888, 887
155, 285, 286, 487, 486, 687, 688, 889, 888
156, 286, 287, 488, 487, 688, 689, 890, 889
157, 287, 288, 489, 488, 689, 690, 891, 890
158, 288, 289, 490, 489, 690, 691, 892, 891
159, 289, 290, 491, 490, 691, 692, 893, 892
160, 290, 291, 492, 491, 692, 693, 894, 893
161, 291, 292, 493, 492, 693, 694, 895, 894
162, 292, 293, 494, 493, 694, 695, 896, 895
163, 293, 294, 495, 494, 695, 696, 897, 896
164, 294, 295, 496, 495, 696, 697, 898, 897
165, 295, 296, 497, 496, 697, 698, 899, 898
166, 296, 297, 498, 497, 698, 699, 900, 899
167, 297, 298, 499, 498, 699, 700, 901, 900
168, 298, 299, 500, 499, 700, 701, 902, 901
169, 299, 300, 501, 500, 701, 702, 903, 902
170, 300, 301, 502, 501, 702, 703, 904, 903
171, 301, 302, 503, 502, 703, 704, 905, 904
172, 302, 303, 504, 503, 704, 705, 906, 905
173, 303, 304, 505, 504, 705, 706, 907, 906
174, 304, 305, 506, 505, 706, 707, 908, 907
175, 305, 306, 507, 506, 707, 708, 909, 908
176, 306, 307, 508, 507, 708, 709, 910, 909
177, 307, 308, 509, 508, 709, 710, 911, 910
178, 308, 309, 510, 509, 710, 711, 912, 911
179, 309, 310, 511, 510, 711, 712, 913, 912
180, 310, 311, 512, 511, 712, 713, 914, 913
181, 311, 312, 513, 512, 713, 714, 915, 914
182, 312, 313, 514, 513, 714, 715, 916, 915
183, 313, 314, 515, 514, 715, 716, 917, 916
184, 314, 315, 516, 515, 716, 717, 918, 917
185, 315, 316, 517, 516, 717, 718, 919, 918
186, 316, 317, 518, 517, 718, 719, 920, 919
187, 317, 318, 519, 518, 719, 720, 921, 920
188, 318, 319, 520, 519, 720, 721, 922, 921
189, 319, 320, 521, 520, 721, 722, 923, 922
190, 320, 321, 522, 521, 722, 723, 924, 923
191, 321, 322, 523, 522, 723, 724, 925, 924
192, 322, 323, 524, 523, 724, 725, 926, 925
193, 323, 324, 525, 524, 725, 726, 927, 926
194, 324, 325, 526, 525, 726, 727, 928, 927
195, 325, 326, 527, 526, 727, 728, 929, 928
196, 326, 327, 528, 527, 728, 729, 930, 929
197, 327, 328, 529, 528, 729, 730, 931, 930
198, 328, 329, 530, 529, 730, 731, 932, 931
199, 329, 330, 531, 530, 731, 732, 933, 932
200, 330, 331, 532, 531, 732, 733, 934, 933
201, 331, 332, 533, 532, 733, 734, 935, 934
202, 332, 333, 534, 533, 734, 735, 936, 935
203, 333, 334, 535, 534, 735, 736, 937, 936
204, 334, 335, 536, 535, 736, 737, 938, 937
205, 335, 336, 537, 536, 737, 738, 939, 938
206, 336, 337, 538, 537, 738, 739, 940, 939
207, 337, 338, 539, 538, 739, 740, 941, 940
208, 338, 339, 540, 539, 740, 741, 942, 941
209, 339, 340, 541, 540, 741, 742, 943, 942
210, 340, 341, 542, 541, 742, 743, 944, 943
211, 341, 342, 543, 542, 743, 744, 945, 944
212, 342, 343, 544, 543, 744, 745, 946, 945
213, 343, 344, 545, 544, 745, 746, 947, 946
214, 344, 345, 546, 545, 746, 747, 948, 947
215, 345, 346, 547, 546, 747, 748, 949, 948
216, 346, 347, 548, 547, 748, 749, 950, 949
217, 347, 348, 549, 548, 749, 750, 951, 950
218, 348, 349, 550, 549, 750, 751, 952, 951
219, 349, 350, 551, 550, 751, 752, 953, 952
220, 350, 351, 552, 551, 752, 753, 954, 953
221, 351, 352, 553, 552, 753, 754, 955, 954
222, 352, 353, 554, 553, 754, 755, 956, 955
223, 353, 354, 555, 554, 755, 756, 957, 956
224, 354, 355, 556, 555, 756, 757, 958, 957
225, 355, 356, 557, 556, 757, 758, 959, 958
226, 356, 357, 558, 557, 758, 759, 960, 959
227, 357, 358, 559, 558, 759, 760, 961, 960
228, 358, 359, 560, 559, 760, 761, 962, 961
229, 359, 360, 561, 560, 761, 762, 963, 962
230, 360, 361, 562, 561, 762, 763, 964, 963
231, 361, 362, 563, 562, 763, 764, 965, 964
232, 362, 363, 564, 563, 764, 765, 966, 965
233, 363, 364, 565, 564, 765, 766, 967, 966
234, 364, 365, 566, 565, 766, 767, 968, 967
235, 365, 366, 567, 566, 767, 768, 969, 968
236, 366, 367, 568, 567, 768, 769, 970, 969
237, 367, 368, 569, 568, 769, 770, 971, 970
238, 368, 369, 570, 569, 770, 771, 972, 971
239, 369, 370, 571, 570, 771, 772, 973, 972
240, 370, 371, 572, 571, 772, 773, 974, 973
241, 371, 372, 573, 572, 773, 774, 975, 974
242, 372, 373, 574, 573, 774, 775, 976, 975
243, 373, 374, 575, 574, 775, 776, 977, 976
244, 374, 375, 576, 575, 776, 777, 978, 977
245, 375, 376, 577, 576, 777, 778, 979, 978
246, 376, 377, 578, 577, 778, 779, 980, 979
247, 377, 378, 579, 578, 779, 780, 981, 980
248, 378, 379, 580, 579, 780, 781, 982, 981
249, 379, 380, 581, 580, 781, 782, 983, 982
250, 380, 381, 582, 581, 782, 783, 984, 983
251, 381, 382, 583, 582, 783, 784, 985, 984
252, 382, 383, 584, 583, 784, 785, 986, 985
253, 383, 384, 585, 584, 785, 786, 987, 986
254, 384, 385, 586, 585, 786, 787, 988, 987
255, 385, 386, 587, 586, 787, 788, 989, 988
256, 386, 387, 588, 587, 788, 789, 990, 989
257, 387, 388, 589, 588, 789, 790, 991, 990
258, 388, 389, 590, 589, 790, 791, 992, 991
259, 389, 390, 591, 590, 791, 792, 993, 992
260, 390, 391, 592, 591, 792, 793, 994, 993
261, 391, 392, 593, 592, 793, 794, 995, 994
262, 392, 393, 594, 593, 794, 795, 996, 995
263, 393, 394, 595, 594, 795, 796, 997, 996
264, 394, 395, 596, 595, 796, 797, 998, 997
265, 395, 396, 597, 596, 797, 798, 999, 998
266, 396, 397, 598, 597, 798, 799, 1000, 999
267, 397, 398, 599, 598, 799, 800, 1001, 1000
268, 398, 399, 600, 599, 800, 801, 1002, 1001
269, 399, 400, 601, 600, 801, 802, 1003, 1002
270, 400, 401, 602, 601, 802, 803, 1004, 1003
271, 401, 402, 603, 602, 803, 804, 1005, 1004
272, 402, 403, 604, 603, 804, 805, 1006, 1005
273, 403, 404, 605, 604, 805, 806, 1007, 1006
274, 404, 405, 606, 605, 806, 807, 1008, 1007
275, 405, 406, 607, 606, 807, 808, 1009, 1008
276, 406, 407, 608, 607, 808, 809, 1010, 1009
277, 407, 408, 609, 608, 809, 810, 1011, 1010
278, 408, 409, 610, 609, 810, 811, 1012, 1011
279, 409, 410, 611, 610, 811, 812, 1013, 1012
280, 410, 411, 612, 611, 812, 813, 1014, 1013
*NSET, NSET=CLAMP
1, 2, 3, 19, 20, 21, 22, 23, 24, 40, 41, 42
43, 44, 45, 61, 62, 63, 64, 65, 66, 82, 83, 84
85, 86, 87, 103, 104, 105, 106, 107, 108, 124, 125, 126
127, 128, 129, 145, 146, 147, 148, 149, 150, 166, 167, 168
169, 170, 171, 187, 188, 189, 190, 191, 192, 208, 209, 210
*NSET, NSET=SUPA
170, 191
*NSET, NSET=SUPB
188, 209
*NSET, NSET=NTOP
169, 170, 171, 172, 173, 174, 175, 176, 177, 178, 179, 180
181, 182, 183, 184, 185, 186, 187, 188, 189, 190, 191, 192
193, 194, 195, 196, 197, 198, 199, 200, 201, 202, 203, 204
205, 206, 207, 208, 209, 210
*ELSET, ELSET=ETOPL
61, 62, 63, 64, 65, 66, 67, 68, 69, 70, 71, 72
73, 74, 75, 76, 77, 78, 79, 80
*SURFACE, NAME=SSLAVE, TYPE=ELEMENT
ETOPL, S2
*SURFACE, NAME=SMASTER, TYPE=ELEMENT
81, S1
82, S1
83, S1
84, S1
85, S1
86, S1
87, S1
88, S1
89, S1
90, S1
91, S1
92, S1
93, S1
94, S1
95, S1
96, S1
97, S1
98, S1
99, S1
100, S1
101, S1
102, S1
103, S1
104, S1
105, S1
106, S1
107, S1
108, S1
109, S1
110, S1
111, S1
112, S1
113, S1
114, S1
115, S1
116, S1
117, S1
118, S1
119, S1
120, S1
121, S1
122, S1
123, S1
124, S1
125, S1
126, S1
127, S1
128, S1
129, S1
130, S1
131, S1
132, S1
133, S1
134, S1
135, S1
136, S1
137, S1
138, S1
139, S1
140, S1
141, S1
142, S1
143, S1
144, S1
145, S1
146, S1
147, S1
148, S1
149, S1
150, S1
151, S1
152, S1
153, S1
154, S1
155, S1
156, S1
157, S1
158, S1
159, S1
160, S1
161, S1
162, S1
163, S1
164, S1
165, S1
166, S1
167, S1
168, S1
169, S1
170, S1
171, S1
172, S1
173, S1
174, S1
175, S1
176, S1
177, S1
178, S1
179, S1
180, S1
181, S1
182, S1
183, S1
184, S1
185, S1
186, S1
187, S1
188, S1
189, S1
190, S1
191, S1
192, S1
193, S1
194, S1
195, S1
196, S1
197, S1
198, S1
199, S1
200, S1
201, S1
202, S1
203, S1
204, S1
205, S1
206, S1
207, S1
208, S1
209, S1
210, S1
211, S1
212, S1
213, S1
214, S1
215, S1
216, S1
217, S1
218, S1
219, S1
220, S1
221, S1
222, S1
223, S1
224, S1
225, S1
226, S1
227, S1
228, S1
229, S1
230, S1
231, S1
232, S1
233, S1
234, S1
235, S1
236, S1
237, S1
238, S1
239, S1
240, S1
241, S1
242, S1
243, S1
244, S1
245, S1
246, S1
247, S1
248, S1
249, S1
250, S1
251, S1
252, S1
253, S1
254, S1
255, S1
256, S1
257, S1
258, S1
259, S1
260, S1
261, S1
262, S1
263, S1
264, S1
265, S1
266, S1
267, S1
268, S1
269, S1
270, S1
271, S1
272, S1
273, S1
274, S1
275, S1
276, S1
277, S1
278, S1
279, S1
280, S1
*MATERIAL, NAME=AL
*ELASTIC
70000, 0.33
*PLASTIC
100, 0
102.005739, 0.001
103.986239, 0.002
105.94186, 0.003
107.872956, 0.004
109.779878, 0.005
111.662972, 0.006
113.522577, 0.007
115.359028, 0.008
117.172657, 0.009
118.963788, 0.01
120.732743, 0.011
122.479839, 0.012
124.205387, 0.013
125.909695, 0.014
127.593067, 0.015
129.255801, 0.016
130.898192, 0.017
132.52053, 0.018
134.123101, 0.019
135.706188, 0.02
137.270069, 0.021
138.815018, 0.022
140.341305, 0.023
141.849196, 0.024
143.338954, 0.025
144.810839, 0.026
146.265105, 0.027
147.702003, 0.028
149.121781, 0.029
150.524685, 0.03
151.910955, 0.031
153.280827, 0.032
154.634537, 0.033
155.972315, 0.034
157.294389, 0.035
158.600982, 0.036
159.892316, 0.037
161.168608, 0.038
162.430073, 0.039
163.676923, 0.04
164.909367, 0.041
166.127609, 0.042
167.331854, 0.043
168.5223, 0.044
169.699144, 0.045
170.862581, 0.046
172.012803, 0.047
173.149997, 0.048
174.27435, 0.049
175.386045, 0.05
176.485262, 0.051
177.57218, 0.052
178.646975, 0.053
179.70982, 0.054
180.760884, 0.055
181.800336, 0.056
182.828343, 0.057
183.845067, 0.058
184.850669, 0.059
185.845308, 0.06
186.829141, 0.061
187.802322, 0.062
188.765003, 0.063
189.717334, 0.064
190.659462, 0.065
191.591533, 0.066
192.513692, 0.067
193.426078, 0.068
194.328833, 0.069
195.222092, 0.07
196.105993, 0.071
196.980668, 0.072
197.846249, 0.073
198.702866, 0.074
199.550646, 0.075
200.389717, 0.076
201.220202, 0.077
202.042224, 0.078
202.855904, 0.079
203.661361, 0.08
204.458711, 0.081
205.248072, 0.082
206.029556, 0.083
206.803277, 0.084
207.569345, 0.085
208.32787, 0.086
209.078958, 0.087
209.822717, 0.088
210.559251, 0.089
211.288663, 0.09
212.011054, 0.091
212.726526, 0.092
213.435176, 0.093
214.137102, 0.094
214.8324, 0.095
215.521165, 0.096
216.20349, 0.097
216.879466, 0.098
217.549185, 0.099
218.212736, 0.1
218.870207, 0.101
219.521684, 0.102
220.167254, 0.103
220.807, 0.104
221.441005, 0.105
222.069352, 0.106
222.692122, 0.107
223.309393, 0.108
223.921245, 0.109
224.527755, 0.11
225.128999, 0.111
225.725052, 0.112
226.315989, 0.113
226.901882, 0.114
227.482803, 0.115
228.058823, 0.116
228.630013, 0.117
229.196441, 0.118
229.758176, 0.119
230.315283, 0.12
230.86783, 0.121
231.415882, 0.122
231.959501, 0.123
232.498753, 0.124
233.033699, 0.125
233.5644, 0.126
234.090918, 0.127
234.613311, 0.128
235.13164, 0.129
235.645961, 0.13
236.156332, 0.131
236.66281, 0.132
237.16545, 0.133
237.664306, 0.134
238.159434, 0.135
238.650885, 0.136
239.138713, 0.137
239.622969, 0.138
240.103704, 0.139
240.580969, 0.14
241.054813, 0.141
241.525284, 0.142
241.992432, 0.143
242.456303, 0.144
242.916944, 0.145
243.374402, 0.146
243.828721, 0.147
244.279947, 0.148
244.728123, 0.149
245.173294, 0.15
245.615502, 0.151
246.054789, 0.152
246.491198, 0.153
246.924768, 0.154
247.355542, 0.155
247.783558, 0.156
248.208856, 0.157
248.631475, 0.158
249.051453, 0.159
249.468828, 0.16
249.883636, 0.161
250.295915, 0.162
250.705701, 0.163
251.113029, 0.164
251.517935, 0.165
251.920452, 0.166
252.320616, 0.167
252.718459, 0.168
253.114014, 0.169
253.507316, 0.17
253.898394, 0.171
254.287282, 0.172
254.674011, 0.173
255.058611, 0.174
255.441112, 0.175
255.821546, 0.176
256.19994, 0.177
256.576325, 0.178
256.95073, 0.179
257.323181, 0.18
257.693707, 0.181
258.062337, 0.182
258.429096, 0.183
258.794011, 0.184
259.157109, 0.185
259.518416, 0.186
259.877957, 0.187
260.235758, 0.188
260.591843, 0.189
260.946237, 0.19
261.298963, 0.191
261.650047, 0.192
261.999511, 0.193
262.347378, 0.194
262.693671, 0.195
263.038413, 0.196
263.381625, 0.197
263.72333, 0.198
264.063549, 0.199
264.402304, 0.2
264.739614, 0.201
265.075502, 0.202
265.409986, 0.203
265.743088, 0.204
266.074827, 0.205
266.405222, 0.206
266.734292, 0.207
267.062057, 0.208
267.388535, 0.209
267.713744, 0.21
268.037703, 0.211
268.36043, 0.212
268.681941, 0.213
269.002255, 0.214
269.321388, 0.215
269.639358, 0.216
269.95618, 0.217
270.271872, 0.218
270.586449, 0.219
270.899927, 0.22
271.212323, 0.221
271.523651, 0.222
271.833926, 0.223
272.143164, 0.224
272.45138, 0.225
272.758588, 0.226
273.064803, 0.227
273.370038, 0.228
273.674308, 0.229
273.977626, 0.23
274.280007, 0.231
274.581462, 0.232
274.882007, 0.233
275.181653, 0.234
275.480414, 0.235
275.778301, 0.236
276.075328, 0.237
276.371508, 0.238
276.666851, 0.239
276.961369, 0.24
277.255076, 0.241
277.547982, 0.242
277.840098, 0.243
278.131437, 0.244
278.422008, 0.245
278.711824, 0.246
279.000894, 0.247
279.28923, 0.248
279.576841, 0.249
279.863739, 0.25
280.149933, 0.251
280.435434, 0.252
280.720251, 0.253
281.004395, 0.254
281.287874, 0.255
281.570698, 0.256
281.852877, 0.257
282.13442, 0.258
282.415335, 0.259
282.695633, 0.26
282.975321, 0.261
283.254408, 0.262
283.532904, 0.263
283.810815, 0.264
284.088152, 0.265
284.364921, 0.266
284.641132, 0.267
284.916791, 0.268
285.191907, 0.269
285.466488, 0.27
285.740541, 0.271
286.014074, 0.272
286.287094, 0.273
286.559609, 0.274
286.831626, 0.275
287.103151, 0.276
287.374192, 0.277
287.644756, 0.278
287.91485, 0.279
288.18448, 0.28
288.453653, 0.281
288.722375, 0.282
288.990653, 0.283
289.258493, 0.284
289.525902, 0.285
289.792886, 0.286
290.05945, 0.287
290.325601, 0.288
290.591345, 0.289
290.856687, 0.29
291.121633, 0.291
291.386189, 0.292
291.65036, 0.293
291.914152, 0.294
292.17757, 0.295
292.44062, 0.296
292.703307, 0.297
292.965636, 0.298
293.227612, 0.299
293.48924, 0.3
296.087451, 0.31
298.655918, 0.32
301.198624, 0.33
303.71902, 0.34
306.220093, 0.35
308.70443, 0.36
311.174273, 0.37
313.631564, 0.38
316.077982, 0.39
318.514984, 0.4
320.943831, 0.41
323.365615, 0.42
325.781282, 0.43
328.191651, 0.44
330.597432, 0.45
332.999239, 0.46
335.397604, 0.47
337.792988, 0.48
340.18579, 0.49
342.576356, 0.5
344.964986, 0.51
347.351939, 0.52
349.737439, 0.53
352.121681, 0.54
354.504834, 0.55
356.887043, 0.56
359.268435, 0.57
361.649118, 0.58
364.029189, 0.59
366.408729, 0.6
368.787809, 0.61
371.166491, 0.62
373.544827, 0.63
375.922866, 0.64
378.300645, 0.65
380.6782, 0.66
383.055561, 0.67
385.432754, 0.68
387.809802, 0.69
390.186723, 0.7
392.563536, 0.71
394.940253, 0.72
397.316889, 0.73
399.693454, 0.74
402.069957, 0.75
404.446407, 0.76
406.822811, 0.77
409.199176, 0.78
411.575505, 0.79
413.951805, 0.8
416.328079, 0.81
418.70433, 0.82
421.080562, 0.83
423.456777, 0.84
425.832977, 0.85
428.209165, 0.86
430.585342, 0.87
432.961509, 0.88
435.337668, 0.89
437.71382, 0.9
440.089966, 0.91
442.466107, 0.92
444.842243, 0.93
447.218375, 0.94
449.594503, 0.95
451.970629, 0.96
454.346751, 0.97
456.722872, 0.98
459.098991, 0.99
461.475108, 1
463.851223, 1.01
466.227337, 1.02
468.603451, 1.03
470.979563, 1.04
473.355674, 1.05
475.731785, 1.06
478.107895, 1.07
480.484004, 1.08
482.860113, 1.09
485.236222, 1.1
487.61233, 1.11
489.988438, 1.12
492.364546, 1.13
494.740654, 1.14
497.116761, 1.15
499.492868, 1.16
501.868975, 1.17
504.245082, 1.18
506.621189, 1.19
508.997295, 1.2
511.373402, 1.21
513.749508, 1.22
516.125615, 1.23
518.501721, 1.24
520.877828, 1.25
523.253934, 1.26
525.63004, 1.27
528.006146, 1.28
530.382253, 1.29
532.758359, 1.3
535.134465, 1.31
537.510571, 1.32
539.886677, 1.33
542.262783, 1.34
544.63889, 1.35
547.014996, 1.36
549.391102, 1.37
551.767208, 1.38
554.143314, 1.39
556.51942, 1.4
558.895526, 1.41
561.271632, 1.42
563.647738, 1.43
566.023844, 1.44
568.399951, 1.45
570.776057, 1.46
573.152163, 1.47
575.528269, 1.48
577.904375, 1.49
580.280481, 1.5
582.656587, 1.51
585.032693, 1.52
587.408799, 1.53
589.784905, 1.54
592.161011, 1.55
594.537117, 1.56
596.913223, 1.57
599.289329, 1.58
601.665435, 1.59
604.041541, 1.6
606.417647, 1.61
608.793754, 1.62
611.16986, 1.63
613.545966, 1.64
615.922072, 1.65
618.298178, 1.66
620.674284, 1.67
623.05039, 1.68
625.426496, 1.69
627.802602, 1.7
630.178708, 1.71
632.554814, 1.72
634.93092, 1.73
637.307026, 1.74
639.683132, 1.75
642.059238, 1.76
644.435344, 1.77
646.81145, 1.78
649.187556, 1.79
651.563662, 1.8
653.939769, 1.81
656.315875, 1.82
658.691981, 1.83
661.068087, 1.84
663.444193, 1.85
665.820299, 1.86
668.196405, 1.87
670.572511, 1.88
672.948617, 1.89
675.324723, 1.9
677.700829, 1.91
680.076935, 1.92
682.453041, 1.93
684.829147, 1.94
687.205253, 1.95
689.581359, 1.96
691.957465, 1.97
694.333571, 1.98
696.709677, 1.99
699.085784, 2
701.46189, 2.01
703.837996, 2.02
706.214102, 2.03
708.590208, 2.04
710.966314, 2.05
713.34242, 2.06
715.718526, 2.07
718.094632, 2.08
720.470738, 2.09
722.846844, 2.1
725.22295, 2.11
727.599056, 2.12
729.975162, 2.13
732.351268, 2.14
734.727374, 2.15
737.10348, 2.16
739.479586, 2.17
741.855693, 2.18
744.231799, 2.19
746.607905, 2.2
748.984011, 2.21
751.360117, 2.22
753.736223, 2.23
756.112329, 2.24
758.488435, 2.25
760.864541, 2.26
763.240647, 2.27
765.616753, 2.28
767.992859, 2.29
770.368965, 2.3
772.745071, 2.31
775.121177, 2.32
777.497283, 2.33
779.873389, 2.34
782.249495, 2.35
784.625601, 2.36
787.001708, 2.37
789.377814, 2.38
791.75392, 2.39
794.130026, 2.4
796.506132, 2.41
798.882238, 2.42
801.258344, 2.43
803.63445, 2.44
806.010556, 2.45
808.386662, 2.46
810.762768, 2.47
813.138874, 2.48
815.51498, 2.49
817.891086, 2.5
820.267192, 2.51
822.643298, 2.52
825.019404, 2.53
827.39551, 2.54
829.771616, 2.55
832.147723, 2.56
834.523829, 2.57
836.899935, 2.58
839.276041, 2.59
841.652147, 2.6
844.028253, 2.61
846.404359, 2.62
848.780465, 2.63
851.156571, 2.64
853.532677, 2.65
855.908783, 2.66
858.284889, 2.67
860.660995, 2.68
863.037101, 2.69
865.413207, 2.7
867.789313, 2.71
870.165419, 2.72
872.541525, 2.73
874.917631, 2.74
877.293738, 2.75
879.669844, 2.76
882.04595, 2.77
884.422056, 2.78
886.798162, 2.79
889.174268, 2.8
891.550374, 2.81
893.92648, 2.82
896.302586, 2.83
898.678692, 2.84
901.054798, 2.85
903.430904, 2.86
905.80701, 2.87
908.183116, 2.88
910.559222, 2.89
912.935328, 2.9
915.311434, 2.91
917.68754, 2.92
920.063646, 2.93
922.439753, 2.94
924.815859, 2.95
927.191965, 2.96
929.568071, 2.97
931.944177, 2.98
934.320283, 2.99
936.696389, 3

*MATERIAL, NAME=STEEL
*ELASTIC
210000., 0.3
*SOLID SECTION, ELSET=SHEET, MATERIAL=AL
*SOLID SECTION, ELSET=TOOL, MATERIAL=STEEL
*SURFACE INTERACTION, NAME=SI
*SURFACE BEHAVIOR, PRESSURE-OVERCLOSURE=LINEAR
350000, 0.01
*FRICTION
0.1, 350000
*CONTACT PAIR, INTERACTION=SI, TYPE=NODE TO SURFACE
SSLAVE, SMASTER
*STEP, NLGEOM, INC=100000
*STATIC
0.025, 1.0, 2.5e-06, 0.025
*BOUNDARY
NSHEET, 2, 2, 0.0
*BOUNDARY
CLAMP, 1, 1, 0.0
CLAMP, 3, 3, 0.0
*BOUNDARY
PUNCH, 1, 1, 0
PUNCH, 2, 2, 0
PUNCH, 3, 3, -4
*NODE PRINT, NSET=PUNCH, TOTALS=ONLY
RF
*NODE PRINT, NSET=NTOP
U
*EL PRINT, ELSET=SHEET
PEEQ
*END STEP
*STEP, NLGEOM, INC=100000
*STATIC
0.05, 1.0, 1e-7, 0.05
*MODEL CHANGE, TYPE=CONTACT PAIR, REMOVE
SSLAVE, SMASTER
*BOUNDARY
NSHEET, 2, 2, 0.0
*BOUNDARY
CLAMP, 1, 1, 0.0
CLAMP, 3, 3, 0.0
*BOUNDARY
PUNCH, 1, 1, 0
PUNCH, 2, 2, 0
PUNCH, 3, 3, -4
*NODE PRINT, NSET=PUNCH, TOTALS=ONLY
RF
*NODE PRINT, NSET=NTOP
U
*EL PRINT, ELSET=SHEET
PEEQ
*END STEP
*STEP, NLGEOM, INC=100000
*STATIC
0.05, 1.0, 1e-6, 0.05
*BOUNDARY, OP=NEW
NSHEET, 2, 2, 0.0
PUNCH, 1, 1, 0
PUNCH, 2, 2, 0
PUNCH, 3, 3, -4
SUPA, 1, 1, 0.0
SUPA, 3, 3, 0.0
SUPB, 3, 3, 0.0
*NODE PRINT, NSET=PUNCH, TOTALS=ONLY
RF
*NODE PRINT, NSET=NTOP
U
*EL PRINT, ELSET=SHEET
PEEQ
*END STEP
