*HEADING
homogeneous uniaxial
*NODE, NSET=NALL
1, 0, 0, 0
2, 1, 0, 0
3, 0, 1, 0
4, 1, 1, 0
5, 0, 0, 1
6, 1, 0, 1
7, 0, 1, 1
8, 1, 1, 1
*ELEMENT, TYPE=C3D8, ELSET=EALL
1, 1, 2, 4, 3, 5, 6, 8, 7
*NSET, NSET=X0
1, 3, 5, 7
*NSET, NSET=X1
2, 4, 6, 8
*NSET, NSET=Y0
1, 2, 5, 6
*NSET, NSET=Z0
1, 2, 3, 4
*NSET, NSET=Z1
5, 6, 7, 8
*MATERIAL, NAME=AL
*ELASTIC
70000, 0.33
*PLASTIC
100, 0
102.005739, 0.001
103.986239, 0.002
105.94186, 0.003
107.872956, 0.004
109.779878, 0.005
111.662972, 0.006
113.522577, 0.007
115.359028, 0.008
117.172657, 0.009
118.963788, 0.01
120.732743, 0.011
122.479839, 0.012
124.205387, 0.013
125.909695, 0.014
127.593067, 0.015
129.255801, 0.016
130.898192, 0.017
132.52053, 0.018
134.123101, 0.019
135.706188, 0.02
137.270069, 0.021
138.815018, 0.022
140.341305, 0.023
141.849196, 0.024
143.338954, 0.025
144.810839, 0.026
146.265105, 0.027
147.702003, 0.028
149.121781, 0.029
150.524685, 0.03
151.910955, 0.031
153.280827, 0.032
154.634537, 0.033
155.972315, 0.034
157.294389, 0.035
158.600982, 0.036
159.892316, 0.037
161.168608, 0.038
162.430073, 0.039
163.676923, 0.04
164.909367, 0.041
166.127609, 0.042
167.331854, 0.043
168.5223, 0.044
169.699144, 0.045
170.862581, 0.046
172.012803, 0.047
173.149997, 0.048
174.27435, 0.049
175.386045, 0.05
176.485262, 0.051
177.57218, 0.052
178.646975, 0.053
179.70982, 0.054
180.760884, 0.055
181.800336, 0.056
182.828343, 0.057
183.845067, 0.058
184.850669, 0.059
185.845308, 0.06
186.829141, 0.061
187.802322, 0.062
188.765003, 0.063
189.717334, 0.064
190.659462, 0.065
191.591533, 0.066
192.513692, 0.067
193.426078, 0.068
194.328833, 0.069
195.222092, 0.07
196.105993, 0.071
196.980668, 0.072
197.846249, 0.073
198.702866, 0.074
199.550646, 0.075
200.389717, 0.076
201.220202, 0.077
202.042224, 0.078
202.855904, 0.079
203.661361, 0.08
204.458711, 0.081
205.248072, 0.082
206.029556, 0.083
206.803277, 0.084
207.569345, 0.085
208.32787, 0.086
209.078958, 0.087
209.822717, 0.088
210.559251, 0.089
211.288663, 0.09
212.011054, 0.091
212.726526, 0.092
213.435176, 0.093
214.137102, 0.094
214.8324, 0.095
215.521165, 0.096
216.20349, 0.097
216.879466, 0.098
217.549185, 0.099
218.212736, 0.1
218.870207, 0.101
219.521684, 0.102
220.167254, 0.103
220.807, 0.104
221.441005, 0.105
222.069352, 0.106
222.692122, 0.107
223.309393, 0.108
223.921245, 0.109
224.527755, 0.11
225.128999, 0.111
225.725052, 0.112
226.315989, 0.113
226.901882, 0.114
227.482803, 0.115
228.058823, 0.116
228.630013, 0.117
229.196441, 0.118
229.758176, 0.119
230.315283, 0.12
230.86783, 0.121
231.415882, 0.122
231.959501, 0.123
232.498753, 0.124
233.033699, 0.125
233.5644, 0.126
234.090918, 0.127
234.613311, 0.128
235.13164, 0.129
235.645961, 0.13
236.156332, 0.131
236.66281, 0.132
237.16545, 0.133
237.664306, 0.134
238.159434, 0.135
238.650885, 0.136
239.138713, 0.137
239.622969, 0.138
240.103704, 0.139
240.580969, 0.14
241.054813, 0.141
241.525284, 0.142
241.992432, 0.143
242.456303, 0.144
242.916944, 0.145
243.374402, 0.146
243.828721, 0.147
244.279947, 0.148
244.728123, 0.149
245.173294, 0.15
245.615502, 0.151
246.054789, 0.152
246.491198, 0.153
246.924768, 0.154
247.355542, 0.155
247.783558, 0.156
248.208856, 0.157
248.631475, 0.158
249.051453, 0.159
249.468828, 0.16
249.883636, 0.161
250.295915, 0.162
250.705701, 0.163
251.113029, 0.164
251.517935, 0.165
251.920452, 0.166
252.320616, 0.167
252.718459, 0.168
253.114014, 0.169
253.507316, 0.17
253.898394, 0.171
254.287282, 0.172
254.674011, 0.173
255.058611, 0.174
255.441112, 0.175
255.821546, 0.176
256.19994, 0.177
256.576325, 0.178
256.95073, 0.179
257.323181, 0.18
257.693707, 0.181
258.062337, 0.182
258.429096, 0.183
258.794011, 0.184
259.157109, 0.185
259.518416, 0.186
259.877957, 0.187
260.235758, 0.188
260.591843, 0.189
260.946237, 0.19
261.298963, 0.191
261.650047, 0.192
261.999511, 0.193
262.347378, 0.194
262.693671, 0.195
263.038413, 0.196
263.381625, 0.197
263.72333, 0.198
264.063549, 0.199
264.402304, 0.2
264.739614, 0.201
265.075502, 0.202
265.409986, 0.203
265.743088, 0.204
266.074827, 0.205
266.405222, 0.206
266.734292, 0.207
267.062057, 0.208
267.388535, 0.209
267.713744, 0.21
268.037703, 0.211
268.36043, 0.212
268.681941, 0.213
269.002255, 0.214
269.321388, 0.215
269.639358, 0.216
269.95618, 0.217
270.271872, 0.218
270.586449, 0.219
270.899927, 0.22
271.212323, 0.221
271.523651, 0.222
271.833926, 0.223
272.143164, 0.224
272.45138, 0.225
272.758588, 0.226
273.064803, 0.227
273.370038, 0.228
273.674308, 0.229
273.977626, 0.23
274.280007, 0.231
274.581462, 0.232
274.882007, 0.233
275.181653, 0.234
275.480414, 0.235
275.778301, 0.236
276.075328, 0.237
276.371508, 0.238
276.666851, 0.239
276.961369, 0.24
277.255076, 0.241
277.547982, 0.242
277.840098, 0.243
278.131437, 0.244
278.422008, 0.245
278.711824, 0.246
279.000894, 0.247
279.28923, 0.248
279.576841, 0.249
279.863739, 0.25
280.149933, 0.251
280.435434, 0.252
280.720251, 0.253
281.004395, 0.254
281.287874, 0.255
281.570698, 0.256
281.852877, 0.257
282.13442, 0.258
282.415335, 0.259
282.695633, 0.26
282.975321, 0.261
283.254408, 0.262
283.532904, 0.263
283.810815, 0.264
284.088152, 0.265
284.364921, 0.266
284.641132, 0.267
284.916791, 0.268
285.191907, 0.269
285.466488, 0.27
285.740541, 0.271
286.014074, 0.272
286.287094, 0.273
286.559609, 0.274
286.831626, 0.275
287.103151, 0.276
287.374192, 0.277
287.644756, 0.278
287.91485, 0.279
288.18448, 0.28
288.453653, 0.281
288.722375, 0.282
288.990653, 0.283
289.258493, 0.284
289.525902, 0.285
289.792886, 0.286
290.05945, 0.287
290.325601, 0.288
290.591345, 0.289
290.856687, 0.29
291.121633, 0.291
291.386189, 0.292
291.65036, 0.293
291.914152, 0.294
292.17757, 0.295
292.44062, 0.296
292.703307, 0.297
292.965636, 0.298
293.227612, 0.299
293.48924, 0.3
296.087451, 0.31
298.655918, 0.32
301.198624, 0.33
303.71902, 0.34
306.220093, 0.35
308.70443, 0.36
311.174273, 0.37
313.631564, 0.38
316.077982, 0.39
318.514984, 0.4
320.943831, 0.41
323.365615, 0.42
325.781282, 0.43
328.191651, 0.44
330.597432, 0.45
332.999239, 0.46
335.397604, 0.47
337.792988, 0.48
340.18579, 0.49
342.576356, 0.5
344.964986, 0.51
347.351939, 0.52
349.737439, 0.53
352.121681, 0.54
354.504834, 0.55
356.887043, 0.56
359.268435, 0.57
361.649118, 0.58
364.029189, 0.59
366.408729, 0.6
368.787809, 0.61
371.166491, 0.62
373.544827, 0.63
375.922866, 0.64
378.300645, 0.65
380.6782, 0.66
383.055561, 0.67
385.432754, 0.68
387.809802, 0.69
390.186723, 0.7
392.563536, 0.71
394.940253, 0.72
397.316889, 0.73
399.693454, 0.74
402.069957, 0.75
404.446407, 0.76
406.822811, 0.77
409.199176, 0.78
411.575505, 0.79
413.951805, 0.8
416.328079, 0.81
418.70433, 0.82
421.080562, 0.83
423.456777, 0.84
425.832977, 0.85
428.209165, 0.86
430.585342, 0.87
432.961509, 0.88
435.337668, 0.89
437.71382, 0.9
440.089966, 0.91
442.466107, 0.92
444.842243, 0.93
447.218375, 0.94
449.594503, 0.95
451.970629, 0.96
454.346751, 0.97
456.722872, 0.98
459.098991, 0.99
461.475108, 1
463.851223, 1.01
466.227337, 1.02
468.603451, 1.03
470.979563, 1.04
473.355674, 1.05
475.731785, 1.06
478.107895, 1.07
480.484004, 1.08
482.860113, 1.09
485.236222, 1.1
487.61233, 1.11
489.988438, 1.12
492.364546, 1.13
494.740654, 1.14
497.116761, 1.15
499.492868, 1.16
501.868975, 1.17
504.245082, 1.18
506.621189, 1.19
508.997295, 1.2
511.373402, 1.21
513.749508, 1.22
516.125615, 1.23
518.501721, 1.24
520.877828, 1.25
523.253934, 1.26
525.63004, 1.27
528.006146, 1.28
530.382253, 1.29
532.758359, 1.3
535.134465, 1.31
537.510571, 1.32
539.886677, 1.33
542.262783, 1.34
544.63889, 1.35
547.014996, 1.36
549.391102, 1.37
551.767208, 1.38
554.143314, 1.39
556.51942, 1.4
558.895526, 1.41
561.271632, 1.42
563.647738, 1.43
566.023844, 1.44
568.399951, 1.45
570.776057, 1.46
573.152163, 1.47
575.528269, 1.48
577.904375, 1.49
580.280481, 1.5
582.656587, 1.51
585.032693, 1.52
587.408799, 1.53
589.784905, 1.54
592.161011, 1.55
594.537117, 1.56
596.913223, 1.57
599.289329, 1.58
601.665435, 1.59
604.041541, 1.6
606.417647, 1.61
608.793754, 1.62
611.16986, 1.63
613.545966, 1.64
615.922072, 1.65
618.298178, 1.66
620.674284, 1.67
623.05039, 1.68
625.426496, 1.69
627.802602, 1.7
630.178708, 1.71
632.554814, 1.72
634.93092, 1.73
637.307026, 1.74
639.683132, 1.75
642.059238, 1.76
644.435344, 1.77
646.81145, 1.78
649.187556, 1.79
651.563662, 1.8
653.939769, 1.81
656.315875, 1.82
658.691981, 1.83
661.068087, 1.84
663.444193, 1.85
665.820299, 1.86
668.196405, 1.87
670.572511, 1.88
672.948617, 1.89
675.324723, 1.9
677.700829, 1.91
680.076935, 1.92
682.453041, 1.93
684.829147, 1.94
687.205253, 1.95
689.581359, 1.96
691.957465, 1.97
694.333571, 1.98
696.709677, 1.99
699.085784, 2
701.46189, 2.01
703.837996, 2.02
706.214102, 2.03
708.590208, 2.04
710.966314, 2.05
713.34242, 2.06
715.718526, 2.07
718.094632, 2.08
720.470738, 2.09
722.846844, 2.1
725.22295, 2.11
727.599056, 2.12
729.975162, 2.13
732.351268, 2.14
734.727374, 2.15
737.10348, 2.16
739.479586, 2.17
741.855693, 2.18
744.231799, 2.19
746.607905, 2.2
748.984011, 2.21
751.360117, 2.22
753.736223, 2.23
756.112329, 2.24
758.488435, 2.25
760.864541, 2.26
763.240647, 2.27
765.616753, 2.28
767.992859, 2.29
770.368965, 2.3
772.745071, 2.31
775.121177, 2.32
777.497283, 2.33
779.873389, 2.34
782.249495, 2.35
784.625601, 2.36
787.001708, 2.37
789.377814, 2.38
791.75392, 2.39
794.130026, 2.4
796.506132, 2.41
798.882238, 2.42
801.258344, 2.43
803.63445, 2.44
806.010556, 2.45
808.386662, 2.46
810.762768, 2.47
813.138874, 2.48
815.51498, 2.49
817.891086, 2.5
820.267192, 2.51
822.643298, 2.52
825.019404, 2.53
827.39551, 2.54
829.771616, 2.55
832.147723, 2.56
834.523829, 2.57
836.899935, 2.58
839.276041, 2.59
841.652147, 2.6
844.028253, 2.61
846.404359, 2.62
848.780465, 2.63
851.156571, 2.64
853.532677, 2.65
855.908783, 2.66
858.284889, 2.67
860.660995, 2.68
863.037101, 2.69
865.413207, 2.7
867.789313, 2.71
870.165419, 2.72
872.541525, 2.73
874.917631, 2.74
877.293738, 2.75
879.669844, 2.76
882.04595, 2.77
884.422056, 2.78
886.798162, 2.79
889.174268, 2.8
891.550374, 2.81
893.92648, 2.82
896.302586, 2.83
898.678692, 2.84
901.054798, 2.85
903.430904, 2.86
905.80701, 2.87
908.183116, 2.88
910.559222, 2.89
912.935328, 2.9
915.311434, 2.91
917.68754, 2.92
920.063646, 2.93
922.439753, 2.94
924.815859, 2.95
927.191965, 2.96
929.568071, 2.97
931.944177, 2.98
934.320283, 2.99
936.696389, 3

*SOLID SECTION, ELSET=EALL, MATERIAL=AL
*STEP, NLGEOM, INC=10000
*STATIC
0.05, 1.0, 1e-6, 0.05
*BOUNDARY
X0, 1, 1, 0.0
Y0, 2, 2, 0.0
Z0, 3, 3, 0.0
X1, 1, 1, 0.002002001334
*EL PRINT, ELSET=EALL
S, PEEQ
*NODE PRINT, NSET=X1, TOTALS=ONLY
RF
*END STEP
*STEP, NLGEOM, INC=10000
*STATIC
0.05, 1.0, 1e-6, 0.05
*BOUNDARY
X0, 1, 1, 0.0
Y0, 2, 2, 0.0
Z0, 3, 3, 0.0
X1, 1, 1, 0.0100501670842
*EL PRINT, ELSET=EALL
S, PEEQ
*NODE PRINT, NSET=X1, TOTALS=ONLY
RF
*END STEP
*STEP, NLGEOM, INC=10000
*STATIC
0.05, 1.0, 1e-6, 0.05
*BOUNDARY
X0, 1, 1, 0.0
Y0, 2, 2, 0.0
Z0, 3, 3, 0.0
X1, 1, 1, 0.051271096376
*EL PRINT, ELSET=EALL
S, PEEQ
*NODE PRINT, NSET=X1, TOTALS=ONLY
RF
*END STEP
*STEP, NLGEOM, INC=10000
*STATIC
0.05, 1.0, 1e-6, 0.05
*BOUNDARY
X0, 1, 1, 0.0
Y0, 2, 2, 0.0
Z0, 3, 3, 0.0
X1, 1, 1, 0.105170918076
*EL PRINT, ELSET=EALL
S, PEEQ
*NODE PRINT, NSET=X1, TOTALS=ONLY
RF
*END STEP
*STEP, NLGEOM, INC=10000
*STATIC
0.05, 1.0, 1e-6, 0.05
*BOUNDARY
X0, 1, 1, 0.0
Y0, 2, 2, 0.0
Z0, 3, 3, 0.0
X1, 1, 1, 0.22140275816
*EL PRINT, ELSET=EALL
S, PEEQ
*NODE PRINT, NSET=X1, TOTALS=ONLY
RF
*END STEP
*STEP, NLGEOM, INC=10000
*STATIC
0.05, 1.0, 1e-6, 0.05
*BOUNDARY
X0, 1, 1, 0.0
Y0, 2, 2, 0.0
Z0, 3, 3, 0.0
X1, 1, 1, 0.349858807576
*EL PRINT, ELSET=EALL
S, PEEQ
*NODE PRINT, NSET=X1, TOTALS=ONLY
RF
*END STEP
*STEP, NLGEOM, INC=10000
*STATIC
0.05, 1.0, 1e-6, 0.05
*BOUNDARY
X0, 1, 1, 0.0
Y0, 2, 2, 0.0
Z0, 3, 3, 0.0
X1, 1, 1, 0.491824697641
*EL PRINT, ELSET=EALL
S, PEEQ
*NODE PRINT, NSET=X1, TOTALS=ONLY
RF
*END STEP
*STEP, NLGEOM, INC=10000
*STATIC
0.05, 1.0, 1e-6, 0.05
*BOUNDARY
X0, 1, 1, 0.0
Y0, 2, 2, 0.0
Z0, 3, 3, 0.0
X1, 1, 1, 0.6487212707
*EL PRINT, ELSET=EALL
S, PEEQ
*NODE PRINT, NSET=X1, TOTALS=ONLY
RF
*END STEP
*STEP, NLGEOM, INC=10000
*STATIC
0.05, 1.0, 1e-6, 0.05
*BOUNDARY
X0, 1, 1, 0.0
Y0, 2, 2, 0.0
Z0, 3, 3, 0.0
X1, 1, 1, 0.491824697641
*EL PRINT, ELSET=EALL
S, PEEQ
*NODE PRINT, NSET=X1, TOTALS=ONLY
RF
*END STEP
*STEP, NLGEOM, INC=10000
*STATIC
0.05, 1.0, 1e-6, 0.05
*BOUNDARY
X0, 1, 1, 0.0
Y0, 2, 2, 0.0
Z0, 3, 3, 0.0
X1, 1, 1, 0.349858807576
*EL PRINT, ELSET=EALL
S, PEEQ
*NODE PRINT, NSET=X1, TOTALS=ONLY
RF
*END STEP
*STEP, NLGEOM, INC=10000
*STATIC
0.05, 1.0, 1e-6, 0.05
*BOUNDARY
X0, 1, 1, 0.0
Y0, 2, 2, 0.0
Z0, 3, 3, 0.0
X1, 1, 1, 0.22140275816
*EL PRINT, ELSET=EALL
S, PEEQ
*NODE PRINT, NSET=X1, TOTALS=ONLY
RF
*END STEP
*STEP, NLGEOM, INC=10000
*STATIC
0.05, 1.0, 1e-6, 0.05
*BOUNDARY
X0, 1, 1, 0.0
Y0, 2, 2, 0.0
Z0, 3, 3, 0.0
X1, 1, 1, 0.105170918076
*EL PRINT, ELSET=EALL
S, PEEQ
*NODE PRINT, NSET=X1, TOTALS=ONLY
RF
*END STEP
*STEP, NLGEOM, INC=10000
*STATIC
0.05, 1.0, 1e-6, 0.05
*BOUNDARY
X0, 1, 1, 0.0
Y0, 2, 2, 0.0
Z0, 3, 3, 0.0
X1, 1, 1, 0
*EL PRINT, ELSET=EALL
S, PEEQ
*NODE PRINT, NSET=X1, TOTALS=ONLY
RF
*END STEP
