*HEADING
punch cross-check
*NODE, NSET=NSHEET
1, -20, -20, -1
2, -18, -20, -1
3, -16, -20, -1
4, -14, -20, -1
5, -12, -20, -1
6, -10, -20, -1
7, -8, -20, -1
8, -6, -20, -1
9, -4, -20, -1
10, -2, -20, -1
11, 0, -20, -1
12, 2, -20, -1
13, 4, -20, -1
14, 6, -20, -1
15, 8, -20, -1
16, 10, -20, -1
17, 12, -20, -1
18, 14, -20, -1
19, 16, -20, -1
20, 18, -20, -1
21, 20, -20, -1
22, -20, -18, -1
23, -18, -18, -1
24, -16, -18, -1
25, -14, -18, -1
26, -12, -18, -1
27, -10, -18, -1
28, -8, -18, -1
29, -6, -18, -1
30, -4, -18, -1
31, -2, -18, -1
32, 0, -18, -1
33, 2, -18, -1
34, 4, -18, -1
35, 6, -18, -1
36, 8, -18, -1
37, 10, -18, -1
38, 12, -18, -1
39, 14, -18, -1
40, 16, -18, -1
41, 18, -18, -1
42, 20, -18, -1
43, -20, -16, -1
44, -18, -16, -1
45, -16, -16, -1
46, -14, -16, -1
47, -12, -16, -1
48, -10, -16, -1
49, -8, -16, -1
50, -6, -16, -1
51, -4, -16, -1
52, -2, -16, -1
53, 0, -16, -1
54, 2, -16, -1
55, 4, -16, -1
56, 6, -16, -1
57, 8, -16, -1
58, 10, -16, -1
59, 12, -16, -1
60, 14, -16, -1
61, 16, -16, -1
62, 18, -16, -1
63, 20, -16, -1
64, -20, -14, -1
65, -18, -14, -1
66, -16, -14, -1
67, -14, -14, -1
68, -12, -14, -1
69, -10, -14, -1
70, -8, -14, -1
71, -6, -14, -1
72, -4, -14, -1
73, -2, -14, -1
74, 0, -14, -1
75, 2, -14, -1
76, 4, -14, -1
77, 6, -14, -1
78, 8, -14, -1
79, 10, -14, -1
80, 12, -14, -1
81, 14, -14, -1
82, 16, -14, -1
83, 18, -14, -1
84, 20, -14, -1
85, -20, -12, -1
86, -18, -12, -1
87, -16, -12, -1
88, -14, -12, -1
89, -12, -12, -1
90, -10, -12, -1
91, -8, -12, -1
92, -6, -12, -1
93, -4, -12, -1
94, -2, -12, -1
95, 0, -12, -1
96, 2, -12, -1
97, 4, -12, -1
98, 6, -12, -1
99, 8, -12, -1
100, 10, -12, -1
101, 12, -12, -1
102, 14, -12, -1
103, 16, -12, -1
104, 18, -12, -1
105, 20, -12, -1
106, -20, -10, -1
107, -18, -10, -1
108, -16, -10, -1
109, -14, -10, -1
110, -12, -10, -1
111, -10, -10, -1
112, -8, -10, -1
113, -6, -10, -1
114, -4, -10, -1
115, -2, -10, -1
116, 0, -10, -1
117, 2, -10, -1
118, 4, -10, -1
119, 6, -10, -1
120, 8, -10, -1
121, 10, -10, -1
122, 12, -10, -1
123, 14, -10, -1
124, 16, -10, -1
125, 18, -10, -1
126, 20, -10, -1
127, -20, -8, -1
128, -18, -8, -1
129, -16, -8, -1
130, -14, -8, -1
131, -12, -8, -1
132, -10, -8, -1
133, -8, -8, -1
134, -6, -8, -1
135, -4, -8, -1
136, -2, -8, -1
137, 0, -8, -1
138, 2, -8, -1
139, 4, -8, -1
140, 6, -8, -1
141, 8, -8, -1
142, 10, -8, -1
143, 12, -8, -1
144, 14, -8, -1
145, 16, -8, -1
146, 18, -8, -1
147, 20, -8, -1
148, -20, -6, -1
149, -18, -6, -1
150, -16, -6, -1
151, -14, -6, -1
152, -12, -6, -1
153, -10, -6, -1
154, -8, -6, -1
155, -6, -6, -1
156, -4, -6, -1
157, -2, -6, -1
158, 0, -6, -1
159, 2, -6, -1
160, 4, -6, -1
161, 6, -6, -1
162, 8, -6, -1
163, 10, -6, -1
164, 12, -6, -1
165, 14, -6, -1
166, 16, -6, -1
167, 18, -6, -1
168, 20, -6, -1
169, -20, -4, -1
170, -18, -4, -1
171, -16, -4, -1
172, -14, -4, -1
173, -12, -4, -1
174, -10, -4, -1
175, -8, -4, -1
176, -6, -4, -1
177, -4, -4, -1
178, -2, -4, -1
179, 0, -4, -1
180, 2, -4, -1
181, 4, -4, -1
182, 6, -4, -1
183, 8, -4, -1
184, 10, -4, -1
185, 12, -4, -1
186, 14, -4, -1
187, 16, -4, -1
188, 18, -4, -1
189, 20, -4, -1
190, -20, -2, -1
191, -18, -2, -1
192, -16, -2, -1
193, -14, -2, -1
194, -12, -2, -1
195, -10, -2, -1
196, -8, -2, -1
197, -6, -2, -1
198, -4, -2, -1
199, -2, -2, -1
200, 0, -2, -1
201, 2, -2, -1
202, 4, -2, -1
203, 6, -2, -1
204, 8, -2, -1
205, 10, -2, -1
206, 12, -2, -1
207, 14, -2, -1
208, 16, -2, -1
209, 18, -2, -1
210, 20, -2, -1
211, -20, 0, -1
212, -18, 0, -1
213, -16, 0, -1
214, -14, 0, -1
215, -12, 0, -1
216, -10, 0, -1
217, -8, 0, -1
218, -6, 0, -1
219, -4, 0, -1
220, -2, 0, -1
221, 0, 0, -1
222, 2, 0, -1
223, 4, 0, -1
224, 6, 0, -1
225, 8, 0, -1
226, 10, 0, -1
227, 12, 0, -1
228, 14, 0, -1
229, 16, 0, -1
230, 18, 0, -1
231, 20, 0, -1
232, -20, 2, -1
233, -18, 2, -1
234, -16, 2, -1
235, -14, 2, -1
236, -12, 2, -1
237, -10, 2, -1
238, -8, 2, -1
239, -6, 2, -1
240, -4, 2, -1
241, -2, 2, -1
242, 0, 2, -1
243, 2, 2, -1
244, 4, 2, -1
245, 6, 2, -1
246, 8, 2, -1
247, 10, 2, -1
248, 12, 2, -1
249, 14, 2, -1
250, 16, 2, -1
251, 18, 2, -1
252, 20, 2, -1
253, -20, 4, -1
254, -18, 4, -1
255, -16, 4, -1
256, -14, 4, -1
257, -12, 4, -1
258, -10, 4, -1
259, -8, 4, -1
260, -6, 4, -1
261, -4, 4, -1
262, -2, 4, -1
263, 0, 4, -1
264, 2, 4, -1
265, 4, 4, -1
266, 6, 4, -1
267, 8, 4, -1
268, 10, 4, -1
269, 12, 4, -1
270, 14, 4, -1
271, 16, 4, -1
272, 18, 4, -1
273, 20, 4, -1
274, -20, 6, -1
275, -18, 6, -1
276, -16, 6, -1
277, -14, 6, -1
278, -12, 6, -1
279, -10, 6, -1
280, -8, 6, -1
281, -6, 6, -1
282, -4, 6, -1
283, -2, 6, -1
284, 0, 6, -1
285, 2, 6, -1
286, 4, 6, -1
287, 6, 6, -1
288, 8, 6, -1
289, 10, 6, -1
290, 12, 6, -1
291, 14, 6, -1
292, 16, 6, -1
293, 18, 6, -1
294, 20, 6, -1
295, -20, 8, -1
296, -18, 8, -1
297, -16, 8, -1
298, -14, 8, -1
299, -12, 8, -1
300, -10, 8, -1
301, -8, 8, -1
302, -6, 8, -1
303, -4, 8, -1
304, -2, 8, -1
305, 0, 8, -1
306, 2, 8, -1
307, 4, 8, -1
308, 6, 8, -1
309, 8, 8, -1
310, 10, 8, -1
311, 12, 8, -1
312, 14, 8, -1
313, 16, 8, -1
314, 18, 8, -1
315, 20, 8, -1
316, -20, 10, -1
317, -18, 10, -1
318, -16, 10, -1
319, -14, 10, -1
320, -12, 10, -1
321, -10, 10, -1
322, -8, 10, -1
323, -6, 10, -1
324, -4, 10, -1
325, -2, 10, -1
326, 0, 10, -1
327, 2, 10, -1
328, 4, 10, -1
329, 6, 10, -1
330, 8, 10, -1
331, 10, 10, -1
332, 12, 10, -1
333, 14, 10, -1
334, 16, 10, -1
335, 18, 10, -1
336, 20, 10, -1
337, -20, 12, -1
338, -18, 12, -1
339, -16, 12, -1
340, -14, 12, -1
341, -12, 12, -1
342, -10, 12, -1
343, -8, 12, -1
344, -6, 12, -1
345, -4, 12, -1
346, -2, 12, -1
347, 0, 12, -1
348, 2, 12, -1
349, 4, 12, -1
350, 6, 12, -1
351, 8, 12, -1
352, 10, 12, -1
353, 12, 12, -1
354, 14, 12, -1
355, 16, 12, -1
356, 18, 12, -1
357, 20, 12, -1
358, -20, 14, -1
359, -18, 14, -1
360, -16, 14, -1
361, -14, 14, -1
362, -12, 14, -1
363, -10, 14, -1
364, -8, 14, -1
365, -6, 14, -1
366, -4, 14, -1
367, -2, 14, -1
368, 0, 14, -1
369, 2, 14, -1
370, 4, 14, -1
371, 6, 14, -1
372, 8, 14, -1
373, 10, 14, -1
374, 12, 14, -1
375, 14, 14, -1
376, 16, 14, -1
377, 18, 14, -1
378, 20, 14, -1
379, -20, 16, -1
380, -18, 16, -1
381, -16, 16, -1
382, -14, 16, -1
383, -12, 16, -1
384, -10, 16, -1
385, -8, 16, -1
386, -6, 16, -1
387, -4, 16, -1
388, -2, 16, -1
389, 0, 16, -1
390, 2, 16, -1
391, 4, 16, -1
392, 6, 16, -1
393, 8, 16, -1
394, 10, 16, -1
395, 12, 16, -1
396, 14, 16, -1
397, 16, 16, -1
398, 18, 16, -1
399, 20, 16, -1
400, -20, 18, -1
401, -18, 18, -1
402, -16, 18, -1
403, -14, 18, -1
404, -12, 18, -1
405, -10, 18, -1
406, -8, 18, -1
407, -6, 18, -1
408, -4, 18, -1
409, -2, 18, -1
410, 0, 18, -1
411, 2, 18, -1
412, 4, 18, -1
413, 6, 18, -1
414, 8, 18, -1
415, 10, 18, -1
416, 12, 18, -1
417, 14, 18, -1
418, 16, 18, -1
419, 18, 18, -1
420, 20, 18, -1
421, -20, 20, -1
422, -18, 20, -1
423, -16, 20, -1
424, -14, 20, -1
425, -12, 20, -1
426, -10, 20, -1
427, -8, 20, -1
428, -6, 20, -1
429, -4, 20, -1
430, -2, 20, -1
431, 0, 20, -1
432, 2, 20, -1
433, 4, 20, -1
434, 6, 20, -1
435, 8, 20, -1
436, 10, 20, -1
437, 12, 20, -1
438, 14, 20, -1
439, 16, 20, -1
440, 18, 20, -1
441, 20, 20, -1
442, -20, -20, -0.5
443, -18, -20, -0.5
444, -16, -20, -0.5
445, -14, -20, -0.5
446, -12, -20, -0.5
447, -10, -20, -0.5
448, -8, -20, -0.5
449, -6, -20, -0.5
450, -4, -20, -0.5
451, -2, -20, -0.5
452, 0, -20, -0.5
453, 2, -20, -0.5
454, 4, -20, -0.5
455, 6, -20, -0.5
456, 8, -20, -0.5
457, 10, -20, -0.5
458, 12, -20, -0.5
459, 14, -20, -0.5
460, 16, -20, -0.5
461, 18, -20, -0.5
462, 20, -20, -0.5
463, -20, -18, -0.5
464, -18, -18, -0.5
465, -16, -18, -0.5
466, -14, -18, -0.5
467, -12, -18, -0.5
468, -10, -18, -0.5
469, -8, -18, -0.5
470, -6, -18, -0.5
471, -4, -18, -0.5
472, -2, -18, -0.5
473, 0, -18, -0.5
474, 2, -18, -0.5
475, 4, -18, -0.5
476, 6, -18, -0.5
477, 8, -18, -0.5
478, 10, -18, -0.5
479, 12, -18, -0.5
480, 14, -18, -0.5
481, 16, -18, -0.5
482, 18, -18, -0.5
483, 20, -18, -0.5
484, -20, -16, -0.5
485, -18, -16, -0.5
486, -16, -16, -0.5
487, -14, -16, -0.5
488, -12, -16, -0.5
489, -10, -16, -0.5
490, -8, -16, -0.5
491, -6, -16, -0.5
492, -4, -16, -0.5
493, -2, -16, -0.5
494, 0, -16, -0.5
495, 2, -16, -0.5
496, 4, -16, -0.5
497, 6, -16, -0.5
498, 8, -16, -0.5
499, 10, -16, -0.5
500, 12, -16, -0.5
501, 14, -16, -0.5
502, 16, -16, -0.5
503, 18, -16, -0.5
504, 20, -16, -0.5
505, -20, -14, -0.5
506, -18, -14, -0.5
507, -16, -14, -0.5
508, -14, -14, -0.5
509, -12, -14, -0.5
510, -10, -14, -0.5
511, -8, -14, -0.5
512, -6, -14, -0.5
513, -4, -14, -0.5
514, -2, -14, -0.5
515, 0, -14, -0.5
516, 2, -14, -0.5
517, 4, -14, -0.5
518, 6, -14, -0.5
519, 8, -14, -0.5
520, 10, -14, -0.5
521, 12, -14, -0.5
522, 14, -14, -0.5
523, 16, -14, -0.5
524, 18, -14, -0.5
525, 20, -14, -0.5
526, -20, -12, -0.5
527, -18, -12, -0.5
528, -16, -12, -0.5
529, -14, -12, -0.5
530, -12, -12, -0.5
531, -10, -12, -0.5
532, -8, -12, -0.5
533, -6, -12, -0.5
534, -4, -12, -0.5
535, -2, -12, -0.5
536, 0, -12, -0.5
537, 2, -12, -0.5
538, 4, -12, -0.5
539, 6, -12, -0.5
540, 8, -12, -0.5
541, 10, -12, -0.5
542, 12, -12, -0.5
543, 14, -12, -0.5
544, 16, -12, -0.5
545, 18, -12, -0.5
546, 20, -12, -0.5
547, -20, -10, -0.5
548, -18, -10, -0.5
549, -16, -10, -0.5
550, -14, -10, -0.5
551, -12, -10, -0.5
552, -10, -10, -0.5
553, -8, -10, -0.5
554, -6, -10, -0.5
555, -4, -10, -0.5
556, -2, -10, -0.5
557, 0, -10, -0.5
558, 2, -10, -0.5
559, 4, -10, -0.5
560, 6, -10, -0.5
561, 8, -10, -0.5
562, 10, -10, -0.5
563, 12, -10, -0.5
564, 14, -10, -0.5
565, 16, -10, -0.5
566, 18, -10, -0.5
567, 20, -10, -0.5
568, -20, -8, -0.5
569, -18, -8, -0.5
570, -16, -8, -0.5
571, -14, -8, -0.5
572, -12, -8, -0.5
573, -10, -8, -0.5
574, -8, -8, -0.5
575, -6, -8, -0.5
576, -4, -8, -0.5
577, -2, -8, -0.5
578, 0, -8, -0.5
579, 2, -8, -0.5
580, 4, -8, -0.5
581, 6, -8, -0.5
582, 8, -8, -0.5
583, 10, -8, -0.5
584, 12, -8, -0.5
585, 14, -8, -0.5
586, 16, -8, -0.5
587, 18, -8, -0.5
588, 20, -8, -0.5
589, -20, -6, -0.5
590, -18, -6, -0.5
591, -16, -6, -0.5
592, -14, -6, -0.5
593, -12, -6, -0.5
594, -10, -6, -0.5
595, -8, -6, -0.5
596, -6, -6, -0.5
597, -4, -6, -0.5
598, -2, -6, -0.5
599, 0, -6, -0.5
600, 2, -6, -0.5
601, 4, -6, -0.5
602, 6, -6, -0.5
603, 8, -6, -0.5
604, 10, -6, -0.5
605, 12, -6, -0.5
606, 14, -6, -0.5
607, 16, -6, -0.5
608, 18, -6, -0.5
609, 20, -6, -0.5
610, -20, -4, -0.5
611, -18, -4, -0.5
612, -16, -4, -0.5
613, -14, -4, -0.5
614, -12, -4, -0.5
615, -10, -4, -0.5
616, -8, -4, -0.5
617, -6, -4, -0.5
618, -4, -4, -0.5
619, -2, -4, -0.5
620, 0, -4, -0.5
621, 2, -4, -0.5
622, 4, -4, -0.5
623, 6, -4, -0.5
624, 8, -4, -0.5
625, 10, -4, -0.5
626, 12, -4, -0.5
627, 14, -4, -0.5
628, 16, -4, -0.5
629, 18, -4, -0.5
630, 20, -4, -0.5
631, -20, -2, -0.5
632, -18, -2, -0.5
633, -16, -2, -0.5
634, -14, -2, -0.5
635, -12, -2, -0.5
636, -10, -2, -0.5
637, -8, -2, -0.5
638, -6, -2, -0.5
639, -4, -2, -0.5
640, -2, -2, -0.5
641, 0, -2, -0.5
642, 2, -2, -0.5
643, 4, -2, -0.5
644, 6, -2, -0.5
645, 8, -2, -0.5
646, 10, -2, -0.5
647, 12, -2, -0.5
648, 14, -2, -0.5
649, 16, -2, -0.5
650, 18, -2, -0.5
651, 20, -2, -0.5
652, -20, 0, -0.5
653, -18, 0, -0.5
654, -16, 0, -0.5
655, -14, 0, -0.5
656, -12, 0, -0.5
657, -10, 0, -0.5
658, -8, 0, -0.5
659, -6, 0, -0.5
660, -4, 0, -0.5
661, -2, 0, -0.5
662, 0, 0, -0.5
663, 2, 0, -0.5
664, 4, 0, -0.5
665, 6, 0, -0.5
666, 8, 0, -0.5
667, 10, 0, -0.5
668, 12, 0, -0.5
669, 14, 0, -0.5
670, 16, 0, -0.5
671, 18, 0, -0.5
672, 20, 0, -0.5
673, -20, 2, -0.5
674, -18, 2, -0.5
675, -16, 2, -0.5
676, -14, 2, -0.5
677, -12, 2, -0.5
678, -10, 2, -0.5
679, -8, 2, -0.5
680, -6, 2, -0.5
681, -4, 2, -0.5
682, -2, 2, -0.5
683, 0, 2, -0.5
684, 2, 2, -0.5
685, 4, 2, -0.5
686, 6, 2, -0.5
687, 8, 2, -0.5
688, 10, 2, -0.5
689, 12, 2, -0.5
690, 14, 2, -0.5
691, 16, 2, -0.5
692, 18, 2, -0.5
693, 20, 2, -0.5
694, -20, 4, -0.5
695, -18, 4, -0.5
696, -16, 4, -0.5
697, -14, 4, -0.5
698, -12, 4, -0.5
699, -10, 4, -0.5
700, -8, 4, -0.5
701, -6, 4, -0.5
702, -4, 4, -0.5
703, -2, 4, -0.5
704, 0, 4, -0.5
705, 2, 4, -0.5
706, 4, 4, -0.5
707, 6, 4, -0.5
708, 8, 4, -0.5
709, 10, 4, -0.5
710, 12, 4, -0.5
711, 14, 4, -0.5
712, 16, 4, -0.5
713, 18, 4, -0.5
714, 20, 4, -0.5
715, -20, 6, -0.5
716, -18, 6, -0.5
717, -16, 6, -0.5
718, -14, 6, -0.5
719, -12, 6, -0.5
720, -10, 6, -0.5
721, -8, 6, -0.5
722, -6, 6, -0.5
723, -4, 6, -0.5
724, -2, 6, -0.5
725, 0, 6, -0.5
726, 2, 6, -0.5
727, 4, 6, -0.5
728, 6, 6, -0.5
729, 8, 6, -0.5
730, 10, 6, -0.5
731, 12, 6, -0.5
732, 14, 6, -0.5
733, 16, 6, -0.5
734, 18, 6, -0.5
735, 20, 6, -0.5
736, -20, 8, -0.5
737, -18, 8, -0.5
738, -16, 8, -0.5
739, -14, 8, -0.5
740, -12, 8, -0.5
741, -10, 8, -0.5
742, -8, 8, -0.5
743, -6, 8, -0.5
744, -4, 8, -0.5
745, -2, 8, -0.5
746, 0, 8, -0.5
747, 2, 8, -0.5
748, 4, 8, -0.5
749, 6, 8, -0.5
750, 8, 8, -0.5
751, 10, 8, -0.5
752, 12, 8, -0.5
753, 14, 8, -0.5
754, 16, 8, -0.5
755, 18, 8, -0.5
756, 20, 8, -0.5
757, -20, 10, -0.5
758, -18, 10, -0.5
759, -16, 10, -0.5
760, -14, 10, -0.5
761, -12, 10, -0.5
762, -10, 10, -0.5
763, -8, 10, -0.5
764, -6, 10, -0.5
765, -4, 10, -0.5
766, -2, 10, -0.5
767, 0, 10, -0.5
768, 2, 10, -0.5
769, 4, 10, -0.5
770, 6, 10, -0.5
771, 8, 10, -0.5
772, 10, 10, -0.5
773, 12, 10, -0.5
774, 14, 10, -0.5
775, 16, 10, -0.5
776, 18, 10, -0.5
777, 20, 10, -0.5
778, -20, 12, -0.5
779, -18, 12, -0.5
780, -16, 12, -0.5
781, -14, 12, -0.5
782, -12, 12, -0.5
783, -10, 12, -0.5
784, -8, 12, -0.5
785, -6, 12, -0.5
786, -4, 12, -0.5
787, -2, 12, -0.5
788, 0, 12, -0.5
789, 2, 12, -0.5
790, 4, 12, -0.5
791, 6, 12, -0.5
792, 8, 12, -0.5
793, 10, 12, -0.5
794, 12, 12, -0.5
795, 14, 12, -0.5
796, 16, 12, -0.5
797, 18, 12, -0.5
798, 20, 12, -0.5
799, -20, 14, -0.5
800, -18, 14, -0.5
801, -16, 14, -0.5
802, -14, 14, -0.5
803, -12, 14, -0.5
804, -10, 14, -0.5
805, -8, 14, -0.5
806, -6, 14, -0.5
807, -4, 14, -0.5
808, -2, 14, -0.5
809, 0, 14, -0.5
810, 2, 14, -0.5
811, 4, 14, -0.5
812, 6, 14, -0.5
813, 8, 14, -0.5
814, 10, 14, -0.5
815, 12, 14, -0.5
816, 14, 14, -0.5
817, 16, 14, -0.5
818, 18, 14, -0.5
819, 20, 14, -0.5
820, -20, 16, -0.5
821, -18, 16, -0.5
822, -16, 16, -0.5
823, -14, 16, -0.5
824, -12, 16, -0.5
825, -10, 16, -0.5
826, -8, 16, -0.5
827, -6, 16, -0.5
828, -4, 16, -0.5
829, -2, 16, -0.5
830, 0, 16, -0.5
831, 2, 16, -0.5
832, 4, 16, -0.5
833, 6, 16, -0.5
834, 8, 16, -0.5
835, 10, 16, -0.5
836, 12, 16, -0.5
837, 14, 16, -0.5
838, 16, 16, -0.5
839, 18, 16, -0.5
840, 20, 16, -0.5
841, -20, 18, -0.5
842, -18, 18, -0.5
843, -16, 18, -0.5
844, -14, 18, -0.5
845, -12, 18, -0.5
846, -10, 18, -0.5
847, -8, 18, -0.5
848, -6, 18, -0.5
849, -4, 18, -0.5
850, -2, 18, -0.5
851, 0, 18, -0.5
852, 2, 18, -0.5
853, 4, 18, -0.5
854, 6, 18, -0.5
855, 8, 18, -0.5
856, 10, 18, -0.5
857, 12, 18, -0.5
858, 14, 18, -0.5
859, 16, 18, -0.5
860, 18, 18, -0.5
861, 20, 18, -0.5
862, -20, 20, -0.5
863, -18, 20, -0.5
864, -16, 20, -0.5
865, -14, 20, -0.5
866, -12, 20, -0.5
867, -10, 20, -0.5
868, -8, 20, -0.5
869, -6, 20, -0.5
870, -4, 20, -0.5
871, -2, 20, -0.5
872, 0, 20, -0.5
873, 2, 20, -0.5
874, 4, 20, -0.5
875, 6, 20, -0.5
876, 8, 20, -0.5
877, 10, 20, -0.5
878, 12, 20, -0.5
879, 14, 20, -0.5
880, 16, 20, -0.5
881, 18, 20, -0.5
882, 20, 20, -0.5
883, -20, -20, 0
884, -18, -20, 0
885, -16, -20, 0
886, -14, -20, 0
887, -12, -20, 0
888, -10, -20, 0
889, -8, -20, 0
890, -6, -20, 0
891, -4, -20, 0
892, -2, -20, 0
893, 0, -20, 0
894, 2, -20, 0
895, 4, -20, 0
896, 6, -20, 0
897, 8, -20, 0
898, 10, -20, 0
899, 12, -20, 0
900, 14, -20, 0
901, 16, -20, 0
902, 18, -20, 0
903, 20, -20, 0
904, -20, -18, 0
905, -18, -18, 0
906, -16, -18, 0
907, -14, -18, 0
908, -12, -18, 0
909, -10, -18, 0
910, -8, -18, 0
911, -6, -18, 0
912, -4, -18, 0
913, -2, -18, 0
914, 0, -18, 0
915, 2, -18, 0
916, 4, -18, 0
917, 6, -18, 0
918, 8, -18, 0
919, 10, -18, 0
920, 12, -18, 0
921, 14, -18, 0
922, 16, -18, 0
923, 18, -18, 0
924, 20, -18, 0
925, -20, -16, 0
926, -18, -16, 0
927, -16, -16, 0
928, -14, -16, 0
929, -12, -16, 0
930, -10, -16, 0
931, -8, -16, 0
932, -6, -16, 0
933, -4, -16, 0
934, -2, -16, 0
935, 0, -16, 0
936, 2, -16, 0
937, 4, -16, 0
938, 6, -16, 0
939, 8, -16, 0
940, 10, -16, 0
941, 12, -16, 0
942, 14, -16, 0
943, 16, -16, 0
944, 18, -16, 0
945, 20, -16, 0
946, -20, -14, 0
947, -18, -14, 0
948, -16, -14, 0
949, -14, -14, 0
950, -12, -14, 0
951, -10, -14, 0
952, -8, -14, 0
953, -6, -14, 0
954, -4, -14, 0
955, -2, -14, 0
956, 0, -14, 0
957, 2, -14, 0
958, 4, -14, 0
959, 6, -14, 0
960, 8, -14, 0
961, 10, -14, 0
962, 12, -14, 0
963, 14, -14, 0
964, 16, -14, 0
965, 18, -14, 0
966, 20, -14, 0
967, -20, -12, 0
968, -18, -12, 0
969, -16, -12, 0
970, -14, -12, 0
971, -12, -12, 0
972, -10, -12, 0
973, -8, -12, 0
974, -6, -12, 0
975, -4, -12, 0
976, -2, -12, 0
977, 0, -12, 0
978, 2, -12, 0
979, 4, -12, 0
980, 6, -12, 0
981, 8, -12, 0
982, 10, -12, 0
983, 12, -12, 0
984, 14, -12, 0
985, 16, -12, 0
986, 18, -12, 0
987, 20, -12, 0
988, -20, -10, 0
989, -18, -10, 0
990, -16, -10, 0
991, -14, -10, 0
992, -12, -10, 0
993, -10, -10, 0
994, -8, -10, 0
995, -6, -10, 0
996, -4, -10, 0
997, -2, -10, 0
998, 0, -10, 0
999, 2, -10, 0
1000, 4, -10, 0
1001, 6, -10, 0
1002, 8, -10, 0
1003, 10, -10, 0
1004, 12, -10, 0
1005, 14, -10, 0
1006, 16, -10, 0
1007, 18, -10, 0
1008, 20, -10, 0
1009, -20, -8, 0
1010, -18, -8, 0
1011, -16, -8, 0
1012, -14, -8, 0
1013, -12, -8, 0
1014, -10, -8, 0
1015, -8, -8, 0
1016, -6, -8, 0
1017, -4, -8, 0
1018, -2, -8, 0
1019, 0, -8, 0
1020, 2, -8, 0
1021, 4, -8, 0
1022, 6, -8, 0
1023, 8, -8, 0
1024, 10, -8, 0
1025, 12, -8, 0
1026, 14, -8, 0
1027, 16, -8, 0
1028, 18, -8, 0
1029, 20, -8, 0
1030, -20, -6, 0
1031, -18, -6, 0
1032, -16, -6, 0
1033, -14, -6, 0
1034, -12, -6, 0
1035, -10, -6, 0
1036, -8, -6, 0
1037, -6, -6, 0
1038, -4, -6, 0
1039, -2, -6, 0
1040, 0, -6, 0
1041, 2, -6, 0
1042, 4, -6, 0
1043, 6, -6, 0
1044, 8, -6, 0
1045, 10, -6, 0
1046, 12, -6, 0
1047, 14, -6, 0
1048, 16, -6, 0
1049, 18, -6, 0
1050, 20, -6, 0
1051, -20, -4, 0
1052, -18, -4, 0
1053, -16, -4, 0
1054, -14, -4, 0
1055, -12, -4, 0
1056, -10, -4, 0
1057, -8, -4, 0
1058, -6, -4, 0
1059, -4, -4, 0
1060, -2, -4, 0
1061, 0, -4, 0
1062, 2, -4, 0
1063, 4, -4, 0
1064, 6, -4, 0
1065, 8, -4, 0
1066, 10, -4, 0
1067, 12, -4, 0
1068, 14, -4, 0
1069, 16, -4, 0
1070, 18, -4, 0
1071, 20, -4, 0
1072, -20, -2, 0
1073, -18, -2, 0
1074, -16, -2, 0
1075, -14, -2, 0
1076, -12, -2, 0
1077, -10, -2, 0
1078, -8, -2, 0
1079, -6, -2, 0
1080, -4, -2, 0
1081, -2, -2, 0
1082, 0, -2, 0
1083, 2, -2, 0
1084, 4, -2, 0
1085, 6, -2, 0
1086, 8, -2, 0
1087, 10, -2, 0
1088, 12, -2, 0
1089, 14, -2, 0
1090, 16, -2, 0
1091, 18, -2, 0
1092, 20, -2, 0
1093, -20, 0, 0
1094, -18, 0, 0
1095, -16, 0, 0
1096, -14, 0, 0
1097, -12, 0, 0
1098, -10, 0, 0
1099, -8, 0, 0
1100, -6, 0, 0
1101, -4, 0, 0
1102, -2, 0, 0
1103, 0, 0, 0
1104, 2, 0, 0
1105, 4, 0, 0
1106, 6, 0, 0
1107, 8, 0, 0
1108, 10, 0, 0
1109, 12, 0, 0
1110, 14, 0, 0
1111, 16, 0, 0
1112, 18, 0, 0
1113, 20, 0, 0
1114, -20, 2, 0
1115, -18, 2, 0
1116, -16, 2, 0
1117, -14, 2, 0
1118, -12, 2, 0
1119, -10, 2, 0
1120, -8, 2, 0
1121, -6, 2, 0
1122, -4, 2, 0
1123, -2, 2, 0
1124, 0, 2, 0
1125, 2, 2, 0
1126, 4, 2, 0
1127, 6, 2, 0
1128, 8, 2, 0
1129, 10, 2, 0
1130, 12, 2, 0
1131, 14, 2, 0
1132, 16, 2, 0
1133, 18, 2, 0
1134, 20, 2, 0
1135, -20, 4, 0
1136, -18, 4, 0
1137, -16, 4, 0
1138, -14, 4, 0
1139, -12, 4, 0
1140, -10, 4, 0
1141, -8, 4, 0
1142, -6, 4, 0
1143, -4, 4, 0
1144, -2, 4, 0
1145, 0, 4, 0
1146, 2, 4, 0
1147, 4, 4, 0
1148, 6, 4, 0
1149, 8, 4, 0
1150, 10, 4, 0
1151, 12, 4, 0
1152, 14, 4, 0
1153, 16, 4, 0
1154, 18, 4, 0
1155, 20, 4, 0
1156, -20, 6, 0
1157, -18, 6, 0
1158, -16, 6, 0
1159, -14, 6, 0
1160, -12, 6, 0
1161, -10, 6, 0
1162, -8, 6, 0
1163, -6, 6, 0
1164, -4, 6, 0
1165, -2, 6, 0
1166, 0, 6, 0
1167, 2, 6, 0
1168, 4, 6, 0
1169, 6, 6, 0
1170, 8, 6, 0
1171, 10, 6, 0
1172, 12, 6, 0
1173, 14, 6, 0
1174, 16, 6, 0
1175, 18, 6, 0
1176, 20, 6, 0
1177, -20, 8, 0
1178, -18, 8, 0
1179, -16, 8, 0
1180, -14, 8, 0
1181, -12, 8, 0
1182, -10, 8, 0
1183, -8, 8, 0
1184, -6, 8, 0
1185, -4, 8, 0
1186, -2, 8, 0
1187, 0, 8, 0
1188, 2, 8, 0
1189, 4, 8, 0
1190, 6, 8, 0
1191, 8, 8, 0
1192, 10, 8, 0
1193, 12, 8, 0
1194, 14, 8, 0
1195, 16, 8, 0
1196, 18, 8, 0
1197, 20, 8, 0
1198, -20, 10, 0
1199, -18, 10, 0
1200, -16, 10, 0
1201, -14, 10, 0
1202, -12, 10, 0
1203, -10, 10, 0
1204, -8, 10, 0
1205, -6, 10, 0
1206, -4, 10, 0
1207, -2, 10, 0
1208, 0, 10, 0
1209, 2, 10, 0
1210, 4, 10, 0
1211, 6, 10, 0
1212, 8, 10, 0
1213, 10, 10, 0
1214, 12, 10, 0
1215, 14, 10, 0
1216, 16, 10, 0
1217, 18, 10, 0
1218, 20, 10, 0
1219, -20, 12, 0
1220, -18, 12, 0
1221, -16, 12, 0
1222, -14, 12, 0
1223, -12, 12, 0
1224, -10, 12, 0
1225, -8, 12, 0
1226, -6, 12, 0
1227, -4, 12, 0
1228, -2, 12, 0
1229, 0, 12, 0
1230, 2, 12, 0
1231, 4, 12, 0
1232, 6, 12, 0
1233, 8, 12, 0
1234, 10, 12, 0
1235, 12, 12, 0
1236, 14, 12, 0
1237, 16, 12, 0
1238, 18, 12, 0
1239, 20, 12, 0
1240, -20, 14, 0
1241, -18, 14, 0
1242, -16, 14, 0
1243, -14, 14, 0
1244, -12, 14, 0
1245, -10, 14, 0
1246, -8, 14, 0
1247, -6, 14, 0
1248, -4, 14, 0
1249, -2, 14, 0
1250, 0, 14, 0
1251, 2, 14, 0
1252, 4, 14, 0
1253, 6, 14, 0
1254, 8, 14, 0
1255, 10, 14, 0
1256, 12, 14, 0
1257, 14, 14, 0
1258, 16, 14, 0
1259, 18, 14, 0
1260, 20, 14, 0
1261, -20, 16, 0
1262, -18, 16, 0
1263, -16, 16, 0
1264, -14, 16, 0
1265, -12, 16, 0
1266, -10, 16, 0
1267, -8, 16, 0
1268, -6, 16, 0
1269, -4, 16, 0
1270, -2, 16, 0
1271, 0, 16, 0
1272, 2, 16, 0
1273, 4, 16, 0
1274, 6, 16, 0
1275, 8, 16, 0
1276, 10, 16, 0
1277, 12, 16, 0
1278, 14, 16, 0
1279, 16, 16, 0
1280, 18, 16, 0
1281, 20, 16, 0
1282, -20, 18, 0
1283, -18, 18, 0
1284, -16, 18, 0
1285, -14, 18, 0
1286, -12, 18, 0
1287, -10, 18, 0
1288, -8, 18, 0
1289, -6, 18, 0
1290, -4, 18, 0
1291, -2, 18, 0
1292, 0, 18, 0
1293, 2, 18, 0
1294, 4, 18, 0
1295, 6, 18, 0
1296, 8, 18, 0
1297, 10, 18, 0
1298, 12, 18, 0
1299, 14, 18, 0
1300, 16, 18, 0
1301, 18, 18, 0
1302, 20, 18, 0
1303, -20, 20, 0
1304, -18, 20, 0
1305, -16, 20, 0
1306, -14, 20, 0
1307, -12, 20, 0
1308, -10, 20, 0
1309, -8, 20, 0
1310, -6, 20, 0
1311, -4, 20, 0
1312, -2, 20, 0
1313, 0, 20, 0
1314, 2, 20, 0
1315, 4, 20, 0
1316, 6, 20, 0
1317, 8, 20, 0
1318, 10, 20, 0
1319, 12, 20, 0
1320, 14, 20, 0
1321, 16, 20, 0
1322, 18, 20, 0
1323, 20, 20, 0
*NODE, NSET=PUNCH
1324, -2.30940107676, -2.30940107676, 1.69059892324
1325, -2.02072594216, -2.02072594216, 1.97927405784
1326, -2.21012840605, -2.35747029979, 1.64252970021
1327, -1.93386235529, -2.06278651231, 1.93721348769
1328, -2.10460887841, -2.40526728961, 1.59473271039
1329, -1.84153276861, -2.10460887841, 1.89539112159
1330, -1.99264432962, -2.45248532877, 1.54751467123
1331, -1.74356378842, -2.14592466267, 1.85407533733
1332, -1.87408514266, -2.49878019022, 1.50121980978
1333, -1.63982449983, -2.18643266644, 1.81356733356
1334, -1.74884299374, -2.54377162725, 1.45622837275
1335, -1.53023761952, -2.22580017385, 1.77419982615
1336, -1.61690416691, -2.58704666705, 1.41295333295
1337, -1.41479114605, -2.26366583367, 1.73633416633
1338, -1.47834281224, -2.62816499953, 1.37183500047
1339, -1.29354996071, -2.29964437459, 1.70035562541
1340, -1.33333333333, -2.66666666667, 1.33333333333
1341, -1.16666666667, -2.33333333333, 1.66666666667
1342, -1.18216092658, -2.70208211789, 1.29791788211
1343, -1.03439081076, -2.36432185316, 1.63567814684
1344, -1.02522918926, -2.73394450469, 1.26605549531
1345, -0.897075540603, -2.39220144161, 1.60779855839
1346, -0.863063704004, -2.76180385281, 1.23819614719
1347, -0.755180741004, -2.41657837121, 1.58342162879
1348, -0.696310623823, -2.78524249529, 1.21475750471
1349, -0.609271795845, -2.43708718338, 1.56291281662
1350, -0.525729545206, -2.80389090777, 1.19610909223
1351, -0.460013352055, -2.45340454429, 1.54659545571
1352, -0.35218036253, -2.81744290024, 1.18255709976
1353, -0.308157817214, -2.46526253771, 1.53473746229
1354, -0.176604314275, -2.82566902841, 1.17433097159
1355, -0.154528774991, -2.47246039985, 1.52753960015
1356, 0, -2.82842712475, 1.17157287525
1357, 0, -2.47487373415, 1.52512626585
1358, 0.176604314275, -2.82566902841, 1.17433097159
1359, 0.154528774991, -2.47246039985, 1.52753960015
1360, 0.35218036253, -2.81744290024, 1.18255709976
1361, 0.308157817214, -2.46526253771, 1.53473746229
1362, 0.525729545206, -2.80389090777, 1.19610909223
1363, 0.460013352055, -2.45340454429, 1.54659545571
1364, 0.696310623823, -2.78524249529, 1.21475750471
1365, 0.609271795845, -2.43708718338, 1.56291281662
1366, 0.863063704004, -2.76180385281, 1.23819614719
1367, 0.755180741004, -2.41657837121, 1.58342162879
1368, 1.02522918926, -2.73394450469, 1.26605549531
1369, 0.897075540603, -2.39220144161, 1.60779855839
1370, 1.18216092658, -2.70208211789, 1.29791788211
1371, 1.03439081076, -2.36432185316, 1.63567814684
1372, 1.33333333333, -2.66666666667, 1.33333333333
1373, 1.16666666667, -2.33333333333, 1.66666666667
1374, 1.47834281224, -2.62816499953, 1.37183500047
1375, 1.29354996071, -2.29964437459, 1.70035562541
1376, 1.61690416691, -2.58704666705, 1.41295333295
1377, 1.41479114605, -2.26366583367, 1.73633416633
1378, 1.74884299374, -2.54377162725, 1.45622837275
1379, 1.53023761952, -2.22580017385, 1.77419982615
1380, 1.87408514266, -2.49878019022, 1.50121980978
1381, 1.63982449983, -2.18643266644, 1.81356733356
1382, 1.99264432962, -2.45248532877, 1.54751467123
1383, 1.74356378842, -2.14592466267, 1.85407533733
1384, 2.10460887841, -2.40526728961, 1.59473271039
1385, 1.84153276861, -2.10460887841, 1.89539112159
1386, 2.21012840605, -2.35747029979, 1.64252970021
1387, 1.93386235529, -2.06278651231, 1.93721348769
1388, 2.30940107676, -2.30940107676, 1.69059892324
1389, 2.02072594216, -2.02072594216, 1.97927405784
1390, -2.35747029979, -2.21012840605, 1.64252970021
1391, -2.06278651231, -1.93386235529, 1.93721348769
1392, -2.25812978848, -2.25812978848, 1.59132822562
1393, -1.97586356492, -1.97586356492, 1.89241219741
1394, -2.15225483767, -2.30598732607, 1.54028018552
1395, -1.88322298296, -2.01773891031, 1.84774516233
1396, -2.03960780544, -2.35339362166, 1.48971347023
1397, -1.78465682976, -2.05921941895, 1.80349928645
1398, -1.92, -2.4, 1.44
1399, -1.68, -2.1, 1.76
1400, -1.79330612107, -2.44541743782, 1.39155473299
1401, -1.56914285593, -2.13974025809, 1.71761039137
1402, -1.65947962729, -2.48921944094, 1.34483259634
1403, -1.45204467388, -2.17806701082, 1.67672852179
1404, -1.51856834619, -2.53094724366, 1.3003229401
1405, -1.32874730292, -2.2145788382, 1.63778257259
1406, -1.37072939801, -2.57011762127, 1.25854120398
1407, -1.19938822326, -2.24885291861, 1.60122355348
1408, -1.21624227974, -2.60623345658, 1.22001764632
1409, -1.06421199477, -2.28045427451, 1.56751544053
1410, -1.05551879312, -2.6387969828, 1.18528321835
1411, -0.92357894398, -2.30894735995, 1.53712281605
1412, -0.889108448949, -2.66732534685, 1.15485296336
1413, -0.77796989283, -2.33390967849, 1.51049634294
1414, -0.717698086426, -2.6913678241, 1.1292076543
1415, -0.627985825623, -2.35494684609, 1.48805669751
1416, -0.542104741743, -2.71052370872, 1.1087747107
1417, -0.474341649025, -2.37170824513, 1.47017787187
1418, -0.363261287349, -2.72445965512, 1.09390970121
1419, -0.317853626431, -2.38390219823, 1.45717098856
1420, -0.18219500747, -2.73292511205, 1.08487988048
1421, -0.159420631536, -2.39130947304, 1.44926989542
1422, 0, -2.73576451553, 1.08185118344
1423, 0, -2.39379395108, 1.44661978551
1424, 0.18219500747, -2.73292511205, 1.08487988048
1425, 0.159420631536, -2.39130947304, 1.44926989542
1426, 0.363261287349, -2.72445965512, 1.09390970121
1427, 0.317853626431, -2.38390219823, 1.45717098856
1428, 0.542104741743, -2.71052370872, 1.1087747107
1429, 0.474341649025, -2.37170824513, 1.47017787187
1430, 0.717698086426, -2.6913678241, 1.1292076543
1431, 0.627985825623, -2.35494684609, 1.48805669751
1432, 0.889108448949, -2.66732534685, 1.15485296336
1433, 0.77796989283, -2.33390967849, 1.51049634294
1434, 1.05551879312, -2.6387969828, 1.18528321835
1435, 0.92357894398, -2.30894735995, 1.53712281605
1436, 1.21624227974, -2.60623345658, 1.22001764632
1437, 1.06421199477, -2.28045427451, 1.56751544053
1438, 1.37072939801, -2.57011762127, 1.25854120398
1439, 1.19938822326, -2.24885291861, 1.60122355348
1440, 1.51856834619, -2.53094724366, 1.3003229401
1441, 1.32874730292, -2.2145788382, 1.63778257259
1442, 1.65947962729, -2.48921944094, 1.34483259634
1443, 1.45204467388, -2.17806701082, 1.67672852179
1444, 1.79330612107, -2.44541743782, 1.39155473299
1445, 1.56914285593, -2.13974025809, 1.71761039137
1446, 1.92, -2.4, 1.44
1447, 1.68, -2.1, 1.76
1448, 2.03960780544, -2.35339362166, 1.48971347023
1449, 1.78465682976, -2.05921941895, 1.80349928645
1450, 2.15225483767, -2.30598732607, 1.54028018552
1451, 1.88322298296, -2.01773891031, 1.84774516233
1452, 2.25812978848, -2.25812978848, 1.59132822562
1453, 1.97586356492, -1.97586356492, 1.89241219741
1454, 2.35747029979, -2.21012840605, 1.64252970021
1455, 2.06278651231, -1.93386235529, 1.93721348769
1456, -2.40526728961, -2.10460887841, 1.59473271039
1457, -2.10460887841, -1.84153276861, 1.89539112159
1458, -2.30598732607, -2.15225483767, 1.54028018552
1459, -2.01773891031, -1.88322298296, 1.84774516233
1460, -2.19988776369, -2.19988776369, 1.48584255578
1461, -1.92490179323, -1.92490179323, 1.80011223631
1462, -2.08668812015, -2.24720259093, 1.4317684675
1463, -1.82585210513, -1.96630226707, 1.75279740907
1464, -1.96615660925, -2.29384937745, 1.37845785434
1465, -1.72038703309, -2.00711820527, 1.70615062255
1466, -1.83812636984, -2.33943356161, 1.32636164388
1467, -1.60836057361, -2.04700436641, 1.66056643839
1468, -1.70251306152, -2.38351828612, 1.27597910157
1469, -1.48969892883, -2.08557850036, 1.61648171388
1470, -1.55933309457, -2.42562925822, 1.22785227633
1471, -1.36441645775, -2.12242560094, 1.57437074178
1472, -1.40872145012, -2.46526253771, 1.18255709976
1473, -1.23263126886, -2.1571047205, 1.53473746229
1474, -1.2509477445, -2.50189548901, 1.1406908697
1475, -1.09457927644, -2.18915855288, 1.49810451099
1476, -1.08642895251, -2.53500088919, 1.10285612664
1477, -0.950625333446, -2.21812577804, 1.46499911081
1478, -0.915737092991, -2.56406386038, 1.06964130243
1479, -0.801269956367, -2.24355587783, 1.43593613962
1480, -0.739600261634, -2.58860091572, 1.04159895347
1481, -0.647150228929, -2.26502580125, 1.41139908428
1482, -0.558895719399, -2.60818002386, 1.01922282987
1483, -0.489033754474, -2.28215752088, 1.39181997614
1484, -0.374634324633, -2.62244027243, 1.00292540294
1485, -0.327805034054, -2.29463523838, 1.37755972757
1486, -0.187936394294, -2.63110952012, 0.993017691296
1487, -0.164444345007, -2.3022208301, 1.36889047988
1488, 0, -2.63401843147, 0.989693221172
1489, 0, -2.30476612754, 1.36598156853
1490, 0.187936394294, -2.63110952012, 0.993017691296
1491, 0.164444345007, -2.3022208301, 1.36889047988
1492, 0.374634324633, -2.62244027243, 1.00292540294
1493, 0.327805034054, -2.29463523838, 1.37755972757
1494, 0.558895719399, -2.60818002386, 1.01922282987
1495, 0.489033754474, -2.28215752088, 1.39181997614
1496, 0.739600261634, -2.58860091572, 1.04159895347
1497, 0.647150228929, -2.26502580125, 1.41139908428
1498, 0.915737092991, -2.56406386038, 1.06964130243
1499, 0.801269956367, -2.24355587783, 1.43593613962
1500, 1.08642895251, -2.53500088919, 1.10285612664
1501, 0.950625333446, -2.21812577804, 1.46499911081
1502, 1.2509477445, -2.50189548901, 1.1406908697
1503, 1.09457927644, -2.18915855288, 1.49810451099
1504, 1.40872145012, -2.46526253771, 1.18255709976
1505, 1.23263126886, -2.1571047205, 1.53473746229
1506, 1.55933309457, -2.42562925822, 1.22785227633
1507, 1.36441645775, -2.12242560094, 1.57437074178
1508, 1.70251306152, -2.38351828612, 1.27597910157
1509, 1.48969892883, -2.08557850036, 1.61648171388
1510, 1.83812636984, -2.33943356161, 1.32636164388
1511, 1.60836057361, -2.04700436641, 1.66056643839
1512, 1.96615660925, -2.29384937745, 1.37845785434
1513, 1.72038703309, -2.00711820527, 1.70615062255
1514, 2.08668812015, -2.24720259093, 1.4317684675
1515, 1.82585210513, -1.96630226707, 1.75279740907
1516, 2.19988776369, -2.19988776369, 1.48584255578
1517, 1.92490179323, -1.92490179323, 1.80011223631
1518, 2.30598732607, -2.15225483767, 1.54028018552
1519, 2.01773891031, -1.88322298296, 1.84774516233
1520, 2.40526728961, -2.10460887841, 1.59473271039
1521, 2.10460887841, -1.84153276861, 1.89539112159
1522, -2.45248532877, -1.99264432962, 1.54751467123
1523, -2.14592466267, -1.74356378842, 1.85407533733
1524, -2.35339362166, -2.03960780544, 1.48971347023
1525, -2.05921941895, -1.78465682976, 1.80349928645
1526, -2.24720259093, -2.08668812015, 1.4317684675
1527, -1.96630226707, -1.82585210513, 1.75279740907
1528, -2.13358584364, -2.13358584364, 1.37404819244
1529, -1.86688761319, -1.86688761319, 1.70229216839
1530, -2.01226467912, -2.17995340238, 1.31698042784
1531, -1.76073159423, -1.90745922708, 1.65235787436
1532, -1.88302616705, -2.22539456106, 1.26105284793
1533, -1.64764789617, -1.94722024092, 1.60342124194
1534, -1.74574312189, -2.26946605845, 1.20681100498
1535, -1.52752523165, -1.98578280115, 1.55595962936
1536, -1.60039520811, -2.31168196727, 1.15485296336
1537, -1.40034580709, -2.02272172136, 1.51049634294
1538, -1.44709002127, -2.35152128456, 1.10581995746
1539, -1.26620376861, -2.05758112399, 1.46759246278
1540, -1.28608259409, -2.38843910331, 1.06038264208
1541, -1.12532226983, -2.08988421539, 1.42783481182
1542, -1.1177914388, -2.42188145073, 1.01922282987
1543, -0.978067508949, -2.11914626939, 1.39181997614
1544, -0.942809041582, -2.45130350811, 0.983011066937
1545, -0.824957911384, -2.1448905696, 1.36013468357
1546, -0.761904761905, -2.47619047619, 0.952380952381
1547, -0.666666666667, -2.16666666667, 1.33333333333
1548, -0.576018432885, -2.49607987583, 0.927901691281
1549, -0.504016128774, -2.18406989135, 1.31191397987
1550, -0.386243639668, -2.51058365784, 0.910050882654
1551, -0.33796318471, -2.19676070061, 1.29629452232
1552, -0.193800633245, -2.51940823218, 0.899189868086
1553, -0.169575554089, -2.20448220316, 1.28679113458
1554, 0, -2.52237050038, 0.895543999535
1555, 0, -2.20707418783, 1.28360099959
1556, 0.193800633245, -2.51940823218, 0.899189868086
1557, 0.169575554089, -2.20448220316, 1.28679113458
1558, 0.386243639668, -2.51058365784, 0.910050882654
1559, 0.33796318471, -2.19676070061, 1.29629452232
1560, 0.576018432885, -2.49607987583, 0.927901691281
1561, 0.504016128774, -2.18406989135, 1.31191397987
1562, 0.761904761905, -2.47619047619, 0.952380952381
1563, 0.666666666667, -2.16666666667, 1.33333333333
1564, 0.942809041582, -2.45130350811, 0.983011066937
1565, 0.824957911384, -2.1448905696, 1.36013468357
1566, 1.1177914388, -2.42188145073, 1.01922282987
1567, 0.978067508949, -2.11914626939, 1.39181997614
1568, 1.28608259409, -2.38843910331, 1.06038264208
1569, 1.12532226983, -2.08988421539, 1.42783481182
1570, 1.44709002127, -2.35152128456, 1.10581995746
1571, 1.26620376861, -2.05758112399, 1.46759246278
1572, 1.60039520811, -2.31168196727, 1.15485296336
1573, 1.40034580709, -2.02272172136, 1.51049634294
1574, 1.74574312189, -2.26946605845, 1.20681100498
1575, 1.52752523165, -1.98578280115, 1.55595962936
1576, 1.88302616705, -2.22539456106, 1.26105284793
1577, 1.64764789617, -1.94722024092, 1.60342124194
1578, 2.01226467912, -2.17995340238, 1.31698042784
1579, 1.76073159423, -1.90745922708, 1.65235787436
1580, 2.13358584364, -2.13358584364, 1.37404819244
1581, 1.86688761319, -1.86688761319, 1.70229216839
1582, 2.24720259093, -2.08668812015, 1.4317684675
1583, 1.96630226707, -1.82585210513, 1.75279740907
1584, 2.35339362166, -2.03960780544, 1.48971347023
1585, 2.05921941895, -1.78465682976, 1.80349928645
1586, 2.45248532877, -1.99264432962, 1.54751467123
1587, 2.14592466267, -1.74356378842, 1.85407533733
1588, -2.49878019022, -1.87408514266, 1.50121980978
1589, -2.18643266644, -1.63982449983, 1.81356733356
1590, -2.4, -1.92, 1.44
1591, -2.1, -1.68, 1.76
1592, -2.29384937745, -1.96615660925, 1.37845785434
1593, -2.00711820527, -1.72038703309, 1.70615062255
1594, -2.17995340238, -2.01226467912, 1.31698042784
1595, -1.90745922708, -1.76073159423, 1.65235787436
1596, -2.05798302171, -2.05798302171, 1.25602263772
1597, -1.800735144, -1.800735144, 1.599019808
1598, -1.92767499909, -2.10291818082, 1.19610909223
1599, -1.6867156242, -1.84005340822, 1.54659545571
1600, -1.788854382, -2.1466252584, 1.1378329888
1601, -1.56524758425, -1.8782971011, 1.4956038652
1602, -1.64145870932, -2.18861161242, 1.08185118344
1603, -1.43627637065, -1.91503516087, 1.44661978551
1604, -1.48556270542, -2.22834405812, 1.02887458917
1605, -1.29986736724, -1.94980105086, 1.40026526552
1606, -1.32140169891, -2.26526005528, 0.979653259629
1607, -1.15622648655, -1.98210254837, 1.35719660218
1608, -1.14939154227, -2.29878308453, 0.934955887292
1609, -1.00571759948, -2.01143519896, 1.31808640138
1610, -0.970142500145, -2.32834200035, 0.895543999535
1611, -0.848874687627, -2.03729925031, 1.28360099959
1612, -0.784464540553, -2.35339362166, 0.862141837789
1613, -0.686406472984, -2.05921941895, 1.25437410807
1614, -0.593361811721, -2.37344724688, 0.835403670821
1615, -0.519191585256, -2.07676634102, 1.23097821197
1616, -0.398014876084, -2.3880892565, 0.815880991328
1617, -0.348263016573, -2.08957809944, 1.21389586741
1618, -0.199750467776, -2.39700561331, 0.803992515591
1619, -0.174781659304, -2.09737991164, 1.20349345114
1620, 0, -2.4, 0.8
1621, 0, -2.1, 1.2
1622, 0.199750467776, -2.39700561331, 0.803992515591
1623, 0.174781659304, -2.09737991164, 1.20349345114
1624, 0.398014876084, -2.3880892565, 0.815880991328
1625, 0.348263016573, -2.08957809944, 1.21389586741
1626, 0.593361811721, -2.37344724688, 0.835403670821
1627, 0.519191585256, -2.07676634102, 1.23097821197
1628, 0.784464540553, -2.35339362166, 0.862141837789
1629, 0.686406472984, -2.05921941895, 1.25437410807
1630, 0.970142500145, -2.32834200035, 0.895543999535
1631, 0.848874687627, -2.03729925031, 1.28360099959
1632, 1.14939154227, -2.29878308453, 0.934955887292
1633, 1.00571759948, -2.01143519896, 1.31808640138
1634, 1.32140169891, -2.26526005528, 0.979653259629
1635, 1.15622648655, -1.98210254837, 1.35719660218
1636, 1.48556270542, -2.22834405812, 1.02887458917
1637, 1.29986736724, -1.94980105086, 1.40026526552
1638, 1.64145870932, -2.18861161242, 1.08185118344
1639, 1.43627637065, -1.91503516087, 1.44661978551
1640, 1.788854382, -2.1466252584, 1.1378329888
1641, 1.56524758425, -1.8782971011, 1.4956038652
1642, 1.92767499909, -2.10291818082, 1.19610909223
1643, 1.6867156242, -1.84005340822, 1.54659545571
1644, 2.05798302171, -2.05798302171, 1.25602263772
1645, 1.800735144, -1.800735144, 1.599019808
1646, 2.17995340238, -2.01226467912, 1.31698042784
1647, 1.90745922708, -1.76073159423, 1.65235787436
1648, 2.29384937745, -1.96615660925, 1.37845785434
1649, 2.00711820527, -1.72038703309, 1.70615062255
1650, 2.4, -1.92, 1.44
1651, 2.1, -1.68, 1.76
1652, 2.49878019022, -1.87408514266, 1.50121980978
1653, 2.18643266644, -1.63982449983, 1.81356733356
1654, -2.54377162725, -1.74884299374, 1.45622837275
1655, -2.22580017385, -1.53023761952, 1.77419982615
1656, -2.44541743782, -1.79330612107, 1.39155473299
1657, -2.13974025809, -1.56914285593, 1.71761039137
1658, -2.33943356161, -1.83812636984, 1.32636164388
1659, -2.04700436641, -1.60836057361, 1.66056643839
1660, -2.22539456106, -1.88302616705, 1.26105284793
1661, -1.94722024092, -1.64764789617, 1.60342124194
1662, -2.10291818082, -1.92767499909, 1.19610909223
1663, -1.84005340822, -1.6867156242, 1.54659545571
1664, -1.97168714577, -1.97168714577, 1.13209142433
1665, -1.72522625255, -1.72522625255, 1.49057999629
1666, -1.83147418598, -2.01462160458, 1.06964130243
1667, -1.60253991273, -1.76279390401, 1.43593613962
1668, -1.68216952866, -2.05598497947, 1.0094763935
1669, -1.47189833758, -1.79898685704, 1.38329184431
1670, -1.52380952381, -2.09523809524, 0.952380952381
1671, -1.33333333333, -1.83333333333, 1.33333333333
1672, -1.35660443271, -2.13180696569, 0.899189868086
1673, -1.18702887862, -1.86533109498, 1.28679113458
1674, -1.18096279513, -2.16509845774, 0.850765879647
1675, -1.03334244574, -1.89446115052, 1.24442014469
1676, -0.997509336108, -2.19452053944, 0.807970124456
1677, -0.872820669094, -1.92020547201, 1.2069738589
1678, -0.807093235689, -2.21950639814, 0.771627057246
1679, -0.706206581227, -1.94206809838, 1.17517367509
1680, -0.610783918271, -2.23954103366, 0.742485769221
1681, -0.534435928487, -1.95959840445, 1.14967504807
1682, -0.409852415663, -2.25418828615, 0.721180674697
1683, -0.358620863705, -1.97241475038, 1.13103309036
1684, -0.205737799949, -2.26311579944, 0.708195200809
1685, -0.180020574956, -1.98022632451, 1.11967080071
1686, 0, -2.26611529155, 0.703832303203
1687, 0, -1.9828508801, 1.1158532653
1688, 0.205737799949, -2.26311579944, 0.708195200809
1689, 0.180020574956, -1.98022632451, 1.11967080071
1690, 0.409852415663, -2.25418828615, 0.721180674697
1691, 0.358620863705, -1.97241475038, 1.13103309036
1692, 0.610783918271, -2.23954103366, 0.742485769221
1693, 0.534435928487, -1.95959840445, 1.14967504807
1694, 0.807093235689, -2.21950639814, 0.771627057246
1695, 0.706206581227, -1.94206809838, 1.17517367509
1696, 0.997509336108, -2.19452053944, 0.807970124456
1697, 0.872820669094, -1.92020547201, 1.2069738589
1698, 1.18096279513, -2.16509845774, 0.850765879647
1699, 1.03334244574, -1.89446115052, 1.24442014469
1700, 1.35660443271, -2.13180696569, 0.899189868086
1701, 1.18702887862, -1.86533109498, 1.28679113458
1702, 1.52380952381, -2.09523809524, 0.952380952381
1703, 1.33333333333, -1.83333333333, 1.33333333333
1704, 1.68216952866, -2.05598497947, 1.0094763935
1705, 1.47189833758, -1.79898685704, 1.38329184431
1706, 1.83147418598, -2.01462160458, 1.06964130243
1707, 1.60253991273, -1.76279390401, 1.43593613962
1708, 1.97168714577, -1.97168714577, 1.13209142433
1709, 1.72522625255, -1.72522625255, 1.49057999629
1710, 2.10291818082, -1.92767499909, 1.19610909223
1711, 1.84005340822, -1.6867156242, 1.54659545571
1712, 2.22539456106, -1.88302616705, 1.26105284793
1713, 1.94722024092, -1.64764789617, 1.60342124194
1714, 2.33943356161, -1.83812636984, 1.32636164388
1715, 2.04700436641, -1.60836057361, 1.66056643839
1716, 2.44541743782, -1.79330612107, 1.39155473299
1717, 2.13974025809, -1.56914285593, 1.71761039137
1718, 2.54377162725, -1.74884299374, 1.45622837275
1719, 2.22580017385, -1.53023761952, 1.77419982615
1720, -2.58704666705, -1.61690416691, 1.41295333295
1721, -2.26366583367, -1.41479114605, 1.73633416633
1722, -2.48921944094, -1.65947962729, 1.34483259634
1723, -2.17806701082, -1.45204467388, 1.67672852179
1724, -2.38351828612, -1.70251306152, 1.27597910157
1725, -2.08557850036, -1.48969892883, 1.61648171388
1726, -2.26946605845, -1.74574312189, 1.20681100498
1727, -1.98578280115, -1.52752523165, 1.55595962936
1728, -2.1466252584, -1.788854382, 1.1378329888
1729, -1.8782971011, -1.56524758425, 1.4956038652
1730, -2.01462160458, -1.83147418598, 1.06964130243
1731, -1.76279390401, -1.60253991273, 1.43593613962
1732, -1.87317162316, -1.87317162316, 1.00292540294
1733, -1.63902517027, -1.63902517027, 1.37755972757
1734, -1.72211354365, -1.91345949294, 0.938464811296
1735, -1.50684935069, -1.67427705632, 1.32115670988
1736, -1.56144011672, -1.9518001459, 0.877119766565
1737, -1.36626010213, -1.70782512766, 1.26747979574
1738, -1.391331186, -1.98761598, 0.819814432
1739, -1.21741478775, -1.7391639825, 1.217337628
1740, -1.21218305346, -2.0203050891, 0.767511857433
1741, -1.06066017178, -1.76776695297, 1.17157287525
1742, -1.02463103916, -2.04926207831, 0.721180674697
1743, -0.896552159262, -1.79310431852, 1.13103309036
1744, -0.829561355784, -2.07390338946, 0.681754576863
1745, -0.725866186311, -1.81466546578, 1.09653525475
1746, -0.628108707108, -2.09369569036, 0.650086895423
1747, -0.54959511872, -1.83198372907, 1.06882603349
1748, -0.421637021356, -2.10818510678, 0.626903829154
1749, -0.368932393686, -1.84466196843, 1.04854085051
1750, -0.21170244961, -2.1170244961, 0.61276080624
1751, -0.185239643409, -1.85239643409, 1.03616570546
1752, 0, -2.11999576001, 0.60800678398
1753, 0, -1.85499629001, 1.03200593598
1754, 0.21170244961, -2.1170244961, 0.61276080624
1755, 0.185239643409, -1.85239643409, 1.03616570546
1756, 0.421637021356, -2.10818510678, 0.626903829154
1757, 0.368932393686, -1.84466196843, 1.04854085051
1758, 0.628108707108, -2.09369569036, 0.650086895423
1759, 0.54959511872, -1.83198372907, 1.06882603349
1760, 0.829561355784, -2.07390338946, 0.681754576863
1761, 0.725866186311, -1.81466546578, 1.09653525475
1762, 1.02463103916, -2.04926207831, 0.721180674697
1763, 0.896552159262, -1.79310431852, 1.13103309036
1764, 1.21218305346, -2.0203050891, 0.767511857433
1765, 1.06066017178, -1.76776695297, 1.17157287525
1766, 1.391331186, -1.98761598, 0.819814432
1767, 1.21741478775, -1.7391639825, 1.217337628
1768, 1.56144011672, -1.9518001459, 0.877119766565
1769, 1.36626010213, -1.70782512766, 1.26747979574
1770, 1.72211354365, -1.91345949294, 0.938464811296
1771, 1.50684935069, -1.67427705632, 1.32115670988
1772, 1.87317162316, -1.87317162316, 1.00292540294
1773, 1.63902517027, -1.63902517027, 1.37755972757
1774, 2.01462160458, -1.83147418598, 1.06964130243
1775, 1.76279390401, -1.60253991273, 1.43593613962
1776, 2.1466252584, -1.788854382, 1.1378329888
1777, 1.8782971011, -1.56524758425, 1.4956038652
1778, 2.26946605845, -1.74574312189, 1.20681100498
1779, 1.98578280115, -1.52752523165, 1.55595962936
1780, 2.38351828612, -1.70251306152, 1.27597910157
1781, 2.08557850036, -1.48969892883, 1.61648171388
1782, 2.48921944094, -1.65947962729, 1.34483259634
1783, 2.17806701082, -1.45204467388, 1.67672852179
1784, 2.58704666705, -1.61690416691, 1.41295333295
1785, 2.26366583367, -1.41479114605, 1.73633416633
1786, -2.62816499953, -1.47834281224, 1.37183500047
1787, -2.29964437459, -1.29354996071, 1.70035562541
1788, -2.53094724366, -1.51856834619, 1.3003229401
1789, -2.2145788382, -1.32874730292, 1.63778257259
1790, -2.42562925822, -1.55933309457, 1.22785227633
1791, -2.12242560094, -1.36441645775, 1.57437074178
1792, -2.31168196727, -1.60039520811, 1.15485296336
1793, -2.02272172136, -1.40034580709, 1.51049634294
1794, -2.18861161242, -1.64145870932, 1.08185118344
1795, -1.91503516087, -1.43627637065, 1.44661978551
1796, -2.05598497947, -1.68216952866, 1.0094763935
1797, -1.79898685704, -1.47189833758, 1.38329184431
1798, -1.91345949294, -1.72211354365, 0.938464811296
1799, -1.67427705632, -1.50684935069, 1.32115670988
1800, -1.76081755696, -1.76081755696, 0.869657676515
1801, -1.54071536234, -1.54071536234, 1.26095046695
1802, -1.5980037422, -1.79775420998, 0.803992515591
1803, -1.39825327443, -1.57303493373, 1.20349345114
1804, -1.42516247597, -1.83235175481, 0.742485769221
1805, -1.24701716647, -1.60330778546, 1.14967504807
1806, -1.24267289539, -1.86400934308, 0.686205612298
1807, -1.08733878346, -1.6310081752, 1.10042991076
1808, -1.05117666246, -1.89211799242, 0.636234680143
1809, -0.919779579648, -1.65560324337, 1.05670534513
1810, -0.85159407266, -1.91608666348, 0.593623709361
1811, -0.745144813577, -1.67657583055, 1.01942074569
1812, -0.645123996685, -1.93537199005, 0.559338684349
1813, -0.564483497099, -1.6934504913, 0.989421348805
1814, -0.433224288859, -1.94950929987, 0.534205689127
1815, -0.379071252752, -1.70582063738, 0.967429977986
1816, -0.217571317288, -1.95814185559, 0.518858923389
1817, -0.190374902627, -1.71337412364, 0.954001557966
1818, 0, -1.96104495853, 0.513697851502
1819, 0, -1.71591433871, 0.949485620064
1820, 0.217571317288, -1.95814185559, 0.518858923389
1821, 0.190374902627, -1.71337412364, 0.954001557966
1822, 0.433224288859, -1.94950929987, 0.534205689127
1823, 0.379071252752, -1.70582063738, 0.967429977986
1824, 0.645123996685, -1.93537199005, 0.559338684349
1825, 0.564483497099, -1.6934504913, 0.989421348805
1826, 0.85159407266, -1.91608666348, 0.593623709361
1827, 0.745144813577, -1.67657583055, 1.01942074569
1828, 1.05117666246, -1.89211799242, 0.636234680143
1829, 0.919779579648, -1.65560324337, 1.05670534513
1830, 1.24267289539, -1.86400934308, 0.686205612298
1831, 1.08733878346, -1.6310081752, 1.10042991076
1832, 1.42516247597, -1.83235175481, 0.742485769221
1833, 1.24701716647, -1.60330778546, 1.14967504807
1834, 1.5980037422, -1.79775420998, 0.803992515591
1835, 1.39825327443, -1.57303493373, 1.20349345114
1836, 1.76081755696, -1.76081755696, 0.869657676515
1837, 1.54071536234, -1.54071536234, 1.26095046695
1838, 1.91345949294, -1.72211354365, 0.938464811296
1839, 1.67427705632, -1.50684935069, 1.32115670988
1840, 2.05598497947, -1.68216952866, 1.0094763935
1841, 1.79898685704, -1.47189833758, 1.38329184431
1842, 2.18861161242, -1.64145870932, 1.08185118344
1843, 1.91503516087, -1.43627637065, 1.44661978551
1844, 2.31168196727, -1.60039520811, 1.15485296336
1845, 2.02272172136, -1.40034580709, 1.51049634294
1846, 2.42562925822, -1.55933309457, 1.22785227633
1847, 2.12242560094, -1.36441645775, 1.57437074178
1848, 2.53094724366, -1.51856834619, 1.3003229401
1849, 2.2145788382, -1.32874730292, 1.63778257259
1850, 2.62816499953, -1.47834281224, 1.37183500047
1851, 2.29964437459, -1.29354996071, 1.70035562541
1852, -2.66666666667, -1.33333333333, 1.33333333333
1853, -2.33333333333, -1.16666666667, 1.66666666667
1854, -2.57011762127, -1.37072939801, 1.25854120398
1855, -2.24885291861, -1.19938822326, 1.60122355348
1856, -2.46526253771, -1.40872145012, 1.18255709976
1857, -2.1571047205, -1.23263126886, 1.53473746229
1858, -2.35152128456, -1.44709002127, 1.10581995746
1859, -2.05758112399, -1.26620376861, 1.46759246278
1860, -2.22834405812, -1.48556270542, 1.02887458917
1861, -1.94980105086, -1.29986736724, 1.40026526552
1862, -2.09523809524, -1.52380952381, 0.952380952381
1863, -1.83333333333, -1.33333333333, 1.33333333333
1864, -1.9518001459, -1.56144011672, 0.877119766565
1865, -1.70782512766, -1.36626010213, 1.26747979574
1866, -1.79775420998, -1.5980037422, 0.803992515591
1867, -1.57303493373, -1.39825327443, 1.20349345114
1868, -1.63299316186, -1.63299316186, 0.734013676289
1869, -1.42886901662, -1.42886901662, 1.14226196675
1870, -1.45762177763, -1.66585346015, 0.66829307971
1871, -1.27541905542, -1.45762177763, 1.08475644475
1872, -1.27199745601, -1.69599660801, 0.60800678398
1873, -1.11299777401, -1.48399703201, 1.03200593598
1874, -1.07676380412, -1.72282208659, 0.554355826828
1875, -0.942168328602, -1.50746932576, 0.985061348474
1876, -0.872871560944, -1.74574312189, 0.508513756224
1877, -0.763762615826, -1.52752523165, 0.944949536696
1878, -0.661581415704, -1.76421710854, 0.471565782912
1879, -0.578883738741, -1.54368996998, 0.912620060048
1880, -0.444444444444, -1.77777777778, 0.444444444444
1881, -0.388888888889, -1.55555555556, 0.888888888889
1882, -0.223258228874, -1.786065831, 0.42786833801
1883, -0.195350950265, -1.56280760212, 0.874384795759
1884, 0, -1.788854382, 0.422291236
1885, 0, -1.56524758425, 0.8695048315
1886, 0.223258228874, -1.786065831, 0.42786833801
1887, 0.195350950265, -1.56280760212, 0.874384795759
1888, 0.444444444444, -1.77777777778, 0.444444444444
1889, 0.388888888889, -1.55555555556, 0.888888888889
1890, 0.661581415704, -1.76421710854, 0.471565782912
1891, 0.578883738741, -1.54368996998, 0.912620060048
1892, 0.872871560944, -1.74574312189, 0.508513756224
1893, 0.763762615826, -1.52752523165, 0.944949536696
1894, 1.07676380412, -1.72282208659, 0.554355826828
1895, 0.942168328602, -1.50746932576, 0.985061348474
1896, 1.27199745601, -1.69599660801, 0.60800678398
1897, 1.11299777401, -1.48399703201, 1.03200593598
1898, 1.45762177763, -1.66585346015, 0.66829307971
1899, 1.27541905542, -1.45762177763, 1.08475644475
1900, 1.63299316186, -1.63299316186, 0.734013676289
1901, 1.42886901662, -1.42886901662, 1.14226196675
1902, 1.79775420998, -1.5980037422, 0.803992515591
1903, 1.57303493373, -1.39825327443, 1.20349345114
1904, 1.9518001459, -1.56144011672, 0.877119766565
1905, 1.70782512766, -1.36626010213, 1.26747979574
1906, 2.09523809524, -1.52380952381, 0.952380952381
1907, 1.83333333333, -1.33333333333, 1.33333333333
1908, 2.22834405812, -1.48556270542, 1.02887458917
1909, 1.94980105086, -1.29986736724, 1.40026526552
1910, 2.35152128456, -1.44709002127, 1.10581995746
1911, 2.05758112399, -1.26620376861, 1.46759246278
1912, 2.46526253771, -1.40872145012, 1.18255709976
1913, 2.1571047205, -1.23263126886, 1.53473746229
1914, 2.57011762127, -1.37072939801, 1.25854120398
1915, 2.24885291861, -1.19938822326, 1.60122355348
1916, 2.66666666667, -1.33333333333, 1.33333333333
1917, 2.33333333333, -1.16666666667, 1.66666666667
1918, -2.70208211789, -1.18216092658, 1.29791788211
1919, -2.36432185316, -1.03439081076, 1.63567814684
1920, -2.60623345658, -1.21624227974, 1.22001764632
1921, -2.28045427451, -1.06421199477, 1.56751544053
1922, -2.50189548901, -1.2509477445, 1.1406908697
1923, -2.18915855288, -1.09457927644, 1.49810451099
1924, -2.38843910331, -1.28608259409, 1.06038264208
1925, -2.08988421539, -1.12532226983, 1.42783481182
1926, -2.26526005528, -1.32140169891, 0.979653259629
1927, -1.98210254837, -1.15622648655, 1.35719660218
1928, -2.13180696569, -1.35660443271, 0.899189868086
1929, -1.86533109498, -1.18702887862, 1.28679113458
1930, -1.98761598, -1.391331186, 0.819814432
1931, -1.7391639825, -1.21741478775, 1.217337628
1932, -1.83235175481, -1.42516247597, 0.742485769221
1933, -1.60330778546, -1.24701716647, 1.14967504807
1934, -1.66585346015, -1.45762177763, 0.66829307971
1935, -1.45762177763, -1.27541905542, 1.08475644475
1936, -1.48818320967, -1.48818320967, 0.598438377903
1937, -1.30216030846, -1.30216030846, 1.02363358066
1938, -1.29967286658, -1.51628501101, 0.534205689127
1939, -1.13721375826, -1.32674938463, 0.967429977986
1940, -1.10096376513, -1.54134927118, 0.476915951596
1941, -0.963343294486, -1.34868061228, 0.917301457646
1942, -0.893032915498, -1.56280760212, 0.42786833801
1943, -0.78140380106, -1.36745665186, 0.874384795759
1944, -0.67719917758, -1.58013141435, 0.388271052908
1945, -0.592549280382, -1.38261498756, 0.839737171295
1946, -0.455104099191, -1.59286434717, 0.359167206473
1947, -0.398216086792, -1.39375630377, 0.814271305664
1948, -0.22866478019, -1.60065346133, 0.34136351696
1949, -0.200081682666, -1.40057177866, 0.79869307734
1950, 0, -1.60327533608, 0.335370660391
1951, 0, -1.40286591907, 0.793449327842
1952, 0.22866478019, -1.60065346133, 0.34136351696
1953, 0.200081682666, -1.40057177866, 0.79869307734
1954, 0.455104099191, -1.59286434717, 0.359167206473
1955, 0.398216086792, -1.39375630377, 0.814271305664
1956, 0.67719917758, -1.58013141435, 0.388271052908
1957, 0.592549280382, -1.38261498756, 0.839737171295
1958, 0.893032915498, -1.56280760212, 0.42786833801
1959, 0.78140380106, -1.36745665186, 0.874384795759
1960, 1.10096376513, -1.54134927118, 0.476915951596
1961, 0.963343294486, -1.34868061228, 0.917301457646
1962, 1.29967286658, -1.51628501101, 0.534205689127
1963, 1.13721375826, -1.32674938463, 0.967429977986
1964, 1.48818320967, -1.48818320967, 0.598438377903
1965, 1.30216030846, -1.30216030846, 1.02363358066
1966, 1.66585346015, -1.45762177763, 0.66829307971
1967, 1.45762177763, -1.27541905542, 1.08475644475
1968, 1.83235175481, -1.42516247597, 0.742485769221
1969, 1.60330778546, -1.24701716647, 1.14967504807
1970, 1.98761598, -1.391331186, 0.819814432
1971, 1.7391639825, -1.21741478775, 1.217337628
1972, 2.13180696569, -1.35660443271, 0.899189868086
1973, 1.86533109498, -1.18702887862, 1.28679113458
1974, 2.26526005528, -1.32140169891, 0.979653259629
1975, 1.98210254837, -1.15622648655, 1.35719660218
1976, 2.38843910331, -1.28608259409, 1.06038264208
1977, 2.08988421539, -1.12532226983, 1.42783481182
1978, 2.50189548901, -1.2509477445, 1.1406908697
1979, 2.18915855288, -1.09457927644, 1.49810451099
1980, 2.60623345658, -1.21624227974, 1.22001764632
1981, 2.28045427451, -1.06421199477, 1.56751544053
1982, 2.70208211789, -1.18216092658, 1.29791788211
1983, 2.36432185316, -1.03439081076, 1.63567814684
1984, -2.73394450469, -1.02522918926, 1.26605549531
1985, -2.39220144161, -0.897075540603, 1.60779855839
1986, -2.6387969828, -1.05551879312, 1.18528321835
1987, -2.30894735995, -0.92357894398, 1.53712281605
1988, -2.53500088919, -1.08642895251, 1.10285612664
1989, -2.21812577804, -0.950625333446, 1.46499911081
1990, -2.42188145073, -1.1177914388, 1.01922282987
1991, -2.11914626939, -0.978067508949, 1.39181997614
1992, -2.29878308453, -1.14939154227, 0.934955887292
1993, -2.01143519896, -1.00571759948, 1.31808640138
1994, -2.16509845774, -1.18096279513, 0.850765879647
1995, -1.89446115052, -1.03334244574, 1.24442014469
1996, -2.0203050891, -1.21218305346, 0.767511857433
1997, -1.76776695297, -1.06066017178, 1.17157287525
1998, -1.86400934308, -1.24267289539, 0.686205612298
1999, -1.6310081752, -1.08733878346, 1.10042991076
2000, -1.69599660801, -1.27199745601, 0.60800678398
2001, -1.48399703201, -1.11299777401, 1.03200593598
2002, -1.51628501101, -1.29967286658, 0.534205689127
2003, -1.32674938463, -1.13721375826, 0.967429977986
2004, -1.3251783129, -1.3251783129, 0.466191165605
2005, -1.15953102379, -1.15953102379, 0.907917269904
2006, -1.1233119126, -1.34797429512, 0.405401879669
2007, -0.982897923528, -1.17947750823, 0.85472664471
2008, -0.911684611677, -1.36752691752, 0.353261553292
2009, -0.797724035217, -1.19658605283, 0.80910385913
2010, -0.691668501245, -1.38333700249, 0.311101326693
2011, -0.605209938589, -1.21041987718, 0.772213660856
2012, -0.464990554975, -1.39497166493, 0.280075560198
2013, -0.406866735603, -1.22060020681, 0.745066115173
2014, -0.233682495135, -1.40209497081, 0.261080077843
2015, -0.204472183243, -1.22683309946, 0.728445068113
2016, 0, -1.40449376635, 0.254683289724
2017, 0, -1.22893204556, 0.722847878508
2018, 0.233682495135, -1.40209497081, 0.261080077843
2019, 0.204472183243, -1.22683309946, 0.728445068113
2020, 0.464990554975, -1.39497166493, 0.280075560198
2021, 0.406866735603, -1.22060020681, 0.745066115173
2022, 0.691668501245, -1.38333700249, 0.311101326693
2023, 0.605209938589, -1.21041987718, 0.772213660856
2024, 0.911684611677, -1.36752691752, 0.353261553292
2025, 0.797724035217, -1.19658605283, 0.80910385913
2026, 1.1233119126, -1.34797429512, 0.405401879669
2027, 0.982897923528, -1.17947750823, 0.85472664471
2028, 1.3251783129, -1.3251783129, 0.466191165605
2029, 1.15953102379, -1.15953102379, 0.907917269904
2030, 1.51628501101, -1.29967286658, 0.534205689127
2031, 1.32674938463, -1.13721375826, 0.967429977986
2032, 1.69599660801, -1.27199745601, 0.60800678398
2033, 1.48399703201, -1.11299777401, 1.03200593598
2034, 1.86400934308, -1.24267289539, 0.686205612298
2035, 1.6310081752, -1.08733878346, 1.10042991076
2036, 2.0203050891, -1.21218305346, 0.767511857433
2037, 1.76776695297, -1.06066017178, 1.17157287525
2038, 2.16509845774, -1.18096279513, 0.850765879647
2039, 1.89446115052, -1.03334244574, 1.24442014469
2040, 2.29878308453, -1.14939154227, 0.934955887292
2041, 2.01143519896, -1.00571759948, 1.31808640138
2042, 2.42188145073, -1.1177914388, 1.01922282987
2043, 2.11914626939, -0.978067508949, 1.39181997614
2044, 2.53500088919, -1.08642895251, 1.10285612664
2045, 2.21812577804, -0.950625333446, 1.46499911081
2046, 2.6387969828, -1.05551879312, 1.18528321835
2047, 2.30894735995, -0.92357894398, 1.53712281605
2048, 2.73394450469, -1.02522918926, 1.26605549531
2049, 2.39220144161, -0.897075540603, 1.60779855839
2050, -2.76180385281, -0.863063704004, 1.23819614719
2051, -2.41657837121, -0.755180741004, 1.58342162879
2052, -2.66732534685, -0.889108448949, 1.15485296336
2053, -2.33390967849, -0.77796989283, 1.51049634294
2054, -2.56406386038, -0.915737092991, 1.06964130243
2055, -2.24355587783, -0.801269956367, 1.43593613962
2056, -2.45130350811, -0.942809041582, 0.983011066937
2057, -2.1448905696, -0.824957911384, 1.36013468357
2058, -2.32834200035, -0.970142500145, 0.895543999535
2059, -2.03729925031, -0.848874687627, 1.28360099959
2060, -2.19452053944, -0.997509336108, 0.807970124456
2061, -1.92020547201, -0.872820669094, 1.2069738589
2062, -2.04926207831, -1.02463103916, 0.721180674697
2063, -1.79310431852, -0.896552159262, 1.13103309036
2064, -1.89211799242, -1.05117666246, 0.636234680143
2065, -1.65560324337, -0.919779579648, 1.05670534513
2066, -1.72282208659, -1.07676380412, 0.554355826828
2067, -1.50746932576, -0.942168328602, 0.985061348474
2068, -1.54134927118, -1.10096376513, 0.476915951596
2069, -1.34868061228, -0.963343294486, 0.917301457646
2070, -1.34797429512, -1.1233119126, 0.405401879669
2071, -1.17947750823, -0.982897923528, 0.85472664471
2072, -1.14332390095, -1.14332390095, 0.34136351696
2073, -1.00040841333, -1.00040841333, 0.79869307734
2074, -0.928414165097, -1.16051770637, 0.286343339612
2075, -0.81236239446, -1.01545299307, 0.75055042216
2076, -0.704664263418, -1.17444043903, 0.241790595106
2077, -0.61658123049, -1.02763538415, 0.711566770718
2078, -0.473879102207, -1.18469775552, 0.208967182342
2079, -0.414644214431, -1.03661053608, 0.682846284549
2080, -0.23819653367, -1.19098266835, 0.188855461277
2081, -0.208421966961, -1.04210983481, 0.665248528618
2082, 0, -1.19309997254, 0.18208008786
2083, 0, -1.04396247598, 0.659320076877
2084, 0.23819653367, -1.19098266835, 0.188855461277
2085, 0.208421966961, -1.04210983481, 0.665248528618
2086, 0.473879102207, -1.18469775552, 0.208967182342
2087, 0.414644214431, -1.03661053608, 0.682846284549
2088, 0.704664263418, -1.17444043903, 0.241790595106
2089, 0.61658123049, -1.02763538415, 0.711566770718
2090, 0.928414165097, -1.16051770637, 0.286343339612
2091, 0.81236239446, -1.01545299307, 0.75055042216
2092, 1.14332390095, -1.14332390095, 0.34136351696
2093, 1.00040841333, -1.00040841333, 0.79869307734
2094, 1.34797429512, -1.1233119126, 0.405401879669
2095, 1.17947750823, -0.982897923528, 0.85472664471
2096, 1.54134927118, -1.10096376513, 0.476915951596
2097, 1.34868061228, -0.963343294486, 0.917301457646
2098, 1.72282208659, -1.07676380412, 0.554355826828
2099, 1.50746932576, -0.942168328602, 0.985061348474
2100, 1.89211799242, -1.05117666246, 0.636234680143
2101, 1.65560324337, -0.919779579648, 1.05670534513
2102, 2.04926207831, -1.02463103916, 0.721180674697
2103, 1.79310431852, -0.896552159262, 1.13103309036
2104, 2.19452053944, -0.997509336108, 0.807970124456
2105, 1.92020547201, -0.872820669094, 1.2069738589
2106, 2.32834200035, -0.970142500145, 0.895543999535
2107, 2.03729925031, -0.848874687627, 1.28360099959
2108, 2.45130350811, -0.942809041582, 0.983011066937
2109, 2.1448905696, -0.824957911384, 1.36013468357
2110, 2.56406386038, -0.915737092991, 1.06964130243
2111, 2.24355587783, -0.801269956367, 1.43593613962
2112, 2.66732534685, -0.889108448949, 1.15485296336
2113, 2.33390967849, -0.77796989283, 1.51049634294
2114, 2.76180385281, -0.863063704004, 1.23819614719
2115, 2.41657837121, -0.755180741004, 1.58342162879
2116, -2.78524249529, -0.696310623823, 1.21475750471
2117, -2.43708718338, -0.609271795845, 1.56291281662
2118, -2.6913678241, -0.717698086426, 1.1292076543
2119, -2.35494684609, -0.627985825623, 1.48805669751
2120, -2.58860091572, -0.739600261634, 1.04159895347
2121, -2.26502580125, -0.647150228929, 1.41139908428
2122, -2.47619047619, -0.761904761905, 0.952380952381
2123, -2.16666666667, -0.666666666667, 1.33333333333
2124, -2.35339362166, -0.784464540553, 0.862141837789
2125, -2.05921941895, -0.686406472984, 1.25437410807
2126, -2.21950639814, -0.807093235689, 0.771627057246
2127, -1.94206809838, -0.706206581227, 1.17517367509
2128, -2.07390338946, -0.829561355784, 0.681754576863
2129, -1.81466546578, -0.725866186311, 1.09653525475
2130, -1.91608666348, -0.85159407266, 0.593623709361
2131, -1.67657583055, -0.745144813577, 1.01942074569
2132, -1.74574312189, -0.872871560944, 0.508513756224
2133, -1.52752523165, -0.763762615826, 0.944949536696
2134, -1.56280760212, -0.893032915498, 0.42786833801
2135, -1.36745665186, -0.78140380106, 0.874384795759
2136, -1.36752691752, -0.911684611677, 0.353261553292
2137, -1.19658605283, -0.797724035217, 0.80910385913
2138, -1.16051770637, -0.928414165097, 0.286343339612
2139, -1.01545299307, -0.81236239446, 0.75055042216
2140, -0.942809041582, -0.942809041582, 0.228763833672
2141, -0.824957911384, -0.824957911384, 0.700168354463
2142, -0.715859983526, -0.954479978035, 0.18208008786
2143, -0.626377485585, -0.835169980781, 0.659320076877
2144, -0.481543412343, -0.963086824686, 0.147652701255
2145, -0.4213504858, -0.8427009716, 0.629196113598
2146, -0.242091013068, -0.96836405227, 0.12654379092
2147, -0.211829636434, -0.847318545736, 0.610725817055
2148, 0, -0.970142500145, 0.119429999419
2149, 0, -0.848874687627, 0.604501249491
2150, 0.242091013068, -0.96836405227, 0.12654379092
2151, 0.211829636434, -0.847318545736, 0.610725817055
2152, 0.481543412343, -0.963086824686, 0.147652701255
2153, 0.4213504858, -0.8427009716, 0.629196113598
2154, 0.715859983526, -0.954479978035, 0.18208008786
2155, 0.626377485585, -0.835169980781, 0.659320076877
2156, 0.942809041582, -0.942809041582, 0.228763833672
2157, 0.824957911384, -0.824957911384, 0.700168354463
2158, 1.16051770637, -0.928414165097, 0.286343339612
2159, 1.01545299307, -0.81236239446, 0.75055042216
2160, 1.36752691752, -0.911684611677, 0.353261553292
2161, 1.19658605283, -0.797724035217, 0.80910385913
2162, 1.56280760212, -0.893032915498, 0.42786833801
2163, 1.36745665186, -0.78140380106, 0.874384795759
2164, 1.74574312189, -0.872871560944, 0.508513756224
2165, 1.52752523165, -0.763762615826, 0.944949536696
2166, 1.91608666348, -0.85159407266, 0.593623709361
2167, 1.67657583055, -0.745144813577, 1.01942074569
2168, 2.07390338946, -0.829561355784, 0.681754576863
2169, 1.81466546578, -0.725866186311, 1.09653525475
2170, 2.21950639814, -0.807093235689, 0.771627057246
2171, 1.94206809838, -0.706206581227, 1.17517367509
2172, 2.35339362166, -0.784464540553, 0.862141837789
2173, 2.05921941895, -0.686406472984, 1.25437410807
2174, 2.47619047619, -0.761904761905, 0.952380952381
2175, 2.16666666667, -0.666666666667, 1.33333333333
2176, 2.58860091572, -0.739600261634, 1.04159895347
2177, 2.26502580125, -0.647150228929, 1.41139908428
2178, 2.6913678241, -0.717698086426, 1.1292076543
2179, 2.35494684609, -0.627985825623, 1.48805669751
2180, 2.78524249529, -0.696310623823, 1.21475750471
2181, 2.43708718338, -0.609271795845, 1.56291281662
2182, -2.80389090777, -0.525729545206, 1.19610909223
2183, -2.45340454429, -0.460013352055, 1.54659545571
2184, -2.71052370872, -0.542104741743, 1.1087747107
2185, -2.37170824513, -0.474341649025, 1.47017787187
2186, -2.60818002386, -0.558895719399, 1.01922282987
2187, -2.28215752088, -0.489033754474, 1.39181997614
2188, -2.49607987583, -0.576018432885, 0.927901691281
2189, -2.18406989135, -0.504016128774, 1.31191397987
2190, -2.37344724688, -0.593361811721, 0.835403670821
2191, -2.07676634102, -0.519191585256, 1.23097821197
2192, -2.23954103366, -0.610783918271, 0.742485769221
2193, -1.95959840445, -0.534435928487, 1.14967504807
2194, -2.09369569036, -0.628108707108, 0.650086895423
2195, -1.83198372907, -0.54959511872, 1.06882603349
2196, -1.93537199005, -0.645123996685, 0.559338684349
2197, -1.6934504913, -0.564483497099, 0.989421348805
2198, -1.76421710854, -0.661581415704, 0.471565782912
2199, -1.54368996998, -0.578883738741, 0.912620060048
2200, -1.58013141435, -0.67719917758, 0.388271052908
2201, -1.38261498756, -0.592549280382, 0.839737171295
2202, -1.38333700249, -0.691668501245, 0.311101326693
2203, -1.21041987718, -0.605209938589, 0.772213660856
2204, -1.17444043903, -0.704664263418, 0.241790595106
2205, -1.02763538415, -0.61658123049, 0.711566770718
2206, -0.954479978035, -0.715859983526, 0.18208008786
2207, -0.835169980781, -0.626377485585, 0.659320076877
2208, -0.724946511996, -0.724946511996, 0.133618602687
2209, -0.634328197997, -0.634328197997, 0.616916277351
2210, -0.48776860868, -0.73165291302, 0.097851130562
2211, -0.426797532595, -0.640196298892, 0.585619739242
2212, -0.245255735794, -0.735767207382, 0.0759082272962
2213, -0.21459876882, -0.643796306459, 0.566419698884
2214, 0, -0.737154140201, 0.0685112522627
2215, 0, -0.645009872676, 0.55994734573
2216, 0.245255735794, -0.735767207382, 0.0759082272962
2217, 0.21459876882, -0.643796306459, 0.566419698884
2218, 0.48776860868, -0.73165291302, 0.097851130562
2219, 0.426797532595, -0.640196298892, 0.585619739242
2220, 0.724946511996, -0.724946511996, 0.133618602687
2221, 0.634328197997, -0.634328197997, 0.616916277351
2222, 0.954479978035, -0.715859983526, 0.18208008786
2223, 0.835169980781, -0.626377485585, 0.659320076877
2224, 1.17444043903, -0.704664263418, 0.241790595106
2225, 1.02763538415, -0.61658123049, 0.711566770718
2226, 1.38333700249, -0.691668501245, 0.311101326693
2227, 1.21041987718, -0.605209938589, 0.772213660856
2228, 1.58013141435, -0.67719917758, 0.388271052908
2229, 1.38261498756, -0.592549280382, 0.839737171295
2230, 1.76421710854, -0.661581415704, 0.471565782912
2231, 1.54368996998, -0.578883738741, 0.912620060048
2232, 1.93537199005, -0.645123996685, 0.559338684349
2233, 1.6934504913, -0.564483497099, 0.989421348805
2234, 2.09369569036, -0.628108707108, 0.650086895423
2235, 1.83198372907, -0.54959511872, 1.06882603349
2236, 2.23954103366, -0.610783918271, 0.742485769221
2237, 1.95959840445, -0.534435928487, 1.14967504807
2238, 2.37344724688, -0.593361811721, 0.835403670821
2239, 2.07676634102, -0.519191585256, 1.23097821197
2240, 2.49607987583, -0.576018432885, 0.927901691281
2241, 2.18406989135, -0.504016128774, 1.31191397987
2242, 2.60818002386, -0.558895719399, 1.01922282987
2243, 2.28215752088, -0.489033754474, 1.39181997614
2244, 2.71052370872, -0.542104741743, 1.1087747107
2245, 2.37170824513, -0.474341649025, 1.47017787187
2246, 2.80389090777, -0.525729545206, 1.19610909223
2247, 2.45340454429, -0.460013352055, 1.54659545571
2248, -2.81744290024, -0.35218036253, 1.18255709976
2249, -2.46526253771, -0.308157817214, 1.53473746229
2250, -2.72445965512, -0.363261287349, 1.09390970121
2251, -2.38390219823, -0.317853626431, 1.45717098856
2252, -2.62244027243, -0.374634324633, 1.00292540294
2253, -2.29463523838, -0.327805034054, 1.37755972757
2254, -2.51058365784, -0.386243639668, 0.910050882654
2255, -2.19676070061, -0.33796318471, 1.29629452232
2256, -2.3880892565, -0.398014876084, 0.815880991328
2257, -2.08957809944, -0.348263016573, 1.21389586741
2258, -2.25418828615, -0.409852415663, 0.721180674697
2259, -1.97241475038, -0.358620863705, 1.13103309036
2260, -2.10818510678, -0.421637021356, 0.626903829154
2261, -1.84466196843, -0.368932393686, 1.04854085051
2262, -1.94950929987, -0.433224288859, 0.534205689127
2263, -1.70582063738, -0.379071252752, 0.967429977986
2264, -1.77777777778, -0.444444444444, 0.444444444444
2265, -1.55555555556, -0.388888888889, 0.888888888889
2266, -1.59286434717, -0.455104099191, 0.359167206473
2267, -1.39375630377, -0.398216086792, 0.814271305664
2268, -1.39497166493, -0.464990554975, 0.280075560198
2269, -1.22060020681, -0.406866735603, 0.745066115173
2270, -1.18469775552, -0.473879102207, 0.208967182342
2271, -1.03661053608, -0.414644214431, 0.682846284549
2272, -0.963086824686, -0.481543412343, 0.147652701255
2273, -0.8427009716, -0.4213504858, 0.629196113598
2274, -0.73165291302, -0.48776860868, 0.097851130562
2275, -0.640196298892, -0.426797532595, 0.585619739242
2276, -0.492365963917, -0.492365963917, 0.0610722886614
2277, -0.430820218428, -0.430820218428, 0.553438252579
2278, -0.247593784236, -0.495187568472, 0.0384994522229
2279, -0.216644561207, -0.433289122413, 0.533687020695
2280, 0, -0.496138938357, 0.0308884931453
2281, 0, -0.434121571062, 0.527027431502
2282, 0.247593784236, -0.495187568472, 0.0384994522229
2283, 0.216644561207, -0.433289122413, 0.533687020695
2284, 0.492365963917, -0.492365963917, 0.0610722886614
2285, 0.430820218428, -0.430820218428, 0.553438252579
2286, 0.73165291302, -0.48776860868, 0.097851130562
2287, 0.640196298892, -0.426797532595, 0.585619739242
2288, 0.963086824686, -0.481543412343, 0.147652701255
2289, 0.8427009716, -0.4213504858, 0.629196113598
2290, 1.18469775552, -0.473879102207, 0.208967182342
2291, 1.03661053608, -0.414644214431, 0.682846284549
2292, 1.39497166493, -0.464990554975, 0.280075560198
2293, 1.22060020681, -0.406866735603, 0.745066115173
2294, 1.59286434717, -0.455104099191, 0.359167206473
2295, 1.39375630377, -0.398216086792, 0.814271305664
2296, 1.77777777778, -0.444444444444, 0.444444444444
2297, 1.55555555556, -0.388888888889, 0.888888888889
2298, 1.94950929987, -0.433224288859, 0.534205689127
2299, 1.70582063738, -0.379071252752, 0.967429977986
2300, 2.10818510678, -0.421637021356, 0.626903829154
2301, 1.84466196843, -0.368932393686, 1.04854085051
2302, 2.25418828615, -0.409852415663, 0.721180674697
2303, 1.97241475038, -0.358620863705, 1.13103309036
2304, 2.3880892565, -0.398014876084, 0.815880991328
2305, 2.08957809944, -0.348263016573, 1.21389586741
2306, 2.51058365784, -0.386243639668, 0.910050882654
2307, 2.19676070061, -0.33796318471, 1.29629452232
2308, 2.62244027243, -0.374634324633, 1.00292540294
2309, 2.29463523838, -0.327805034054, 1.37755972757
2310, 2.72445965512, -0.363261287349, 1.09390970121
2311, 2.38390219823, -0.317853626431, 1.45717098856
2312, 2.81744290024, -0.35218036253, 1.18255709976
2313, 2.46526253771, -0.308157817214, 1.53473746229
2314, -2.82566902841, -0.176604314275, 1.17433097159
2315, -2.47246039985, -0.154528774991, 1.52753960015
2316, -2.73292511205, -0.18219500747, 1.08487988048
2317, -2.39130947304, -0.159420631536, 1.44926989542
2318, -2.63110952012, -0.187936394294, 0.993017691296
2319, -2.3022208301, -0.164444345007, 1.36889047988
2320, -2.51940823218, -0.193800633245, 0.899189868086
2321, -2.20448220316, -0.169575554089, 1.28679113458
2322, -2.39700561331, -0.199750467776, 0.803992515591
2323, -2.09737991164, -0.174781659304, 1.20349345114
2324, -2.26311579944, -0.205737799949, 0.708195200809
2325, -1.98022632451, -0.180020574956, 1.11967080071
2326, -2.1170244961, -0.21170244961, 0.61276080624
2327, -1.85239643409, -0.185239643409, 1.03616570546
2328, -1.95814185559, -0.217571317288, 0.518858923389
2329, -1.71337412364, -0.190374902627, 0.954001557966
2330, -1.786065831, -0.223258228874, 0.42786833801
2331, -1.56280760212, -0.195350950265, 0.874384795759
2332, -1.60065346133, -0.22866478019, 0.34136351696
2333, -1.40057177866, -0.200081682666, 0.79869307734
2334, -1.40209497081, -0.233682495135, 0.261080077843
2335, -1.22683309946, -0.204472183243, 0.728445068113
2336, -1.19098266835, -0.23819653367, 0.188855461277
2337, -1.04210983481, -0.208421966961, 0.665248528618
2338, -0.96836405227, -0.242091013068, 0.12654379092
2339, -0.847318545736, -0.211829636434, 0.610725817055
2340, -0.735767207382, -0.245255735794, 0.0759082272962
2341, -0.643796306459, -0.21459876882, 0.566419698884
2342, -0.495187568472, -0.247593784236, 0.0384994522229
2343, -0.433289122413, -0.216644561207, 0.533687020695
2344, -0.249029122546, -0.249029122546, 0.015534039266
2345, -0.217900482228, -0.217900482228, 0.513592284358
2346, 0, -0.249513144621, 0.00778968606845
2347, 0, -0.218324001543, 0.50681597531
2348, 0.249029122546, -0.249029122546, 0.015534039266
2349, 0.217900482228, -0.217900482228, 0.513592284358
2350, 0.495187568472, -0.247593784236, 0.0384994522229
2351, 0.433289122413, -0.216644561207, 0.533687020695
2352, 0.735767207382, -0.245255735794, 0.0759082272962
2353, 0.643796306459, -0.21459876882, 0.566419698884
2354, 0.96836405227, -0.242091013068, 0.12654379092
2355, 0.847318545736, -0.211829636434, 0.610725817055
2356, 1.19098266835, -0.23819653367, 0.188855461277
2357, 1.04210983481, -0.208421966961, 0.665248528618
2358, 1.40209497081, -0.233682495135, 0.261080077843
2359, 1.22683309946, -0.204472183243, 0.728445068113
2360, 1.60065346133, -0.22866478019, 0.34136351696
2361, 1.40057177866, -0.200081682666, 0.79869307734
2362, 1.786065831, -0.223258228874, 0.42786833801
2363, 1.56280760212, -0.195350950265, 0.874384795759
2364, 1.95814185559, -0.217571317288, 0.518858923389
2365, 1.71337412364, -0.190374902627, 0.954001557966
2366, 2.1170244961, -0.21170244961, 0.61276080624
2367, 1.85239643409, -0.185239643409, 1.03616570546
2368, 2.26311579944, -0.205737799949, 0.708195200809
2369, 1.98022632451, -0.180020574956, 1.11967080071
2370, 2.39700561331, -0.199750467776, 0.803992515591
2371, 2.09737991164, -0.174781659304, 1.20349345114
2372, 2.51940823218, -0.193800633245, 0.899189868086
2373, 2.20448220316, -0.169575554089, 1.28679113458
2374, 2.63110952012, -0.187936394294, 0.993017691296
2375, 2.3022208301, -0.164444345007, 1.36889047988
2376, 2.73292511205, -0.18219500747, 1.08487988048
2377, 2.39130947304, -0.159420631536, 1.44926989542
2378, 2.82566902841, -0.176604314275, 1.17433097159
2379, 2.47246039985, -0.154528774991, 1.52753960015
2380, -2.82842712475, 0, 1.17157287525
2381, -2.47487373415, 0, 1.52512626585
2382, -2.73576451553, 0, 1.08185118344
2383, -2.39379395108, 0, 1.44661978551
2384, -2.63401843147, 0, 0.989693221172
2385, -2.30476612754, 0, 1.36598156853
2386, -2.52237050038, 0, 0.895543999535
2387, -2.20707418783, 0, 1.28360099959
2388, -2.4, 0, 0.8
2389, -2.1, 0, 1.2
2390, -2.26611529155, 0, 0.703832303203
2391, -1.9828508801, 0, 1.1158532653
2392, -2.11999576001, 0, 0.60800678398
2393, -1.85499629001, 0, 1.03200593598
2394, -1.96104495853, 0, 0.513697851502
2395, -1.71591433871, 0, 0.949485620064
2396, -1.788854382, 0, 0.422291236
2397, -1.56524758425, 0, 0.8695048315
2398, -1.60327533608, 0, 0.335370660391
2399, -1.40286591907, 0, 0.793449327842
2400, -1.40449376635, 0, 0.254683289724
2401, -1.22893204556, 0, 0.722847878508
2402, -1.19309997254, 0, 0.18208008786
2403, -1.04396247598, 0, 0.659320076877
2404, -0.970142500145, 0, 0.119429999419
2405, -0.848874687627, 0, 0.604501249491
2406, -0.737154140201, 0, 0.0685112522627
2407, -0.645009872676, 0, 0.55994734573
2408, -0.496138938357, 0, 0.0308884931453
2409, -0.434121571062, 0, 0.527027431502
2410, -0.249513144621, 0, 0.00778968606845
2411, -0.218324001543, 0, 0.50681597531
2412, 0, 0, 0
2413, 0, 0, 0.5
2414, 0.249513144621, 0, 0.00778968606845
2415, 0.218324001543, 0, 0.50681597531
2416, 0.496138938357, 0, 0.0308884931453
2417, 0.434121571062, 0, 0.527027431502
2418, 0.737154140201, 0, 0.0685112522627
2419, 0.645009872676, 0, 0.55994734573
2420, 0.970142500145, 0, 0.119429999419
2421, 0.848874687627, 0, 0.604501249491
2422, 1.19309997254, 0, 0.18208008786
2423, 1.04396247598, 0, 0.659320076877
2424, 1.40449376635, 0, 0.254683289724
2425, 1.22893204556, 0, 0.722847878508
2426, 1.60327533608, 0, 0.335370660391
2427, 1.40286591907, 0, 0.793449327842
2428, 1.788854382, 0, 0.422291236
2429, 1.56524758425, 0, 0.8695048315
2430, 1.96104495853, 0, 0.513697851502
2431, 1.71591433871, 0, 0.949485620064
2432, 2.11999576001, 0, 0.60800678398
2433, 1.85499629001, 0, 1.03200593598
2434, 2.26611529155, 0, 0.703832303203
2435, 1.9828508801, 0, 1.1158532653
2436, 2.4, 0, 0.8
2437, 2.1, 0, 1.2
2438, 2.52237050038, 0, 0.895543999535
2439, 2.20707418783, 0, 1.28360099959
2440, 2.63401843147, 0, 0.989693221172
2441, 2.30476612754, 0, 1.36598156853
2442, 2.73576451553, 0, 1.08185118344
2443, 2.39379395108, 0, 1.44661978551
2444, 2.82842712475, 0, 1.17157287525
2445, 2.47487373415, 0, 1.52512626585
2446, -2.82566902841, 0.176604314275, 1.17433097159
2447, -2.47246039985, 0.154528774991, 1.52753960015
2448, -2.73292511205, 0.18219500747, 1.08487988048
2449, -2.39130947304, 0.159420631536, 1.44926989542
2450, -2.63110952012, 0.187936394294, 0.993017691296
2451, -2.3022208301, 0.164444345007, 1.36889047988
2452, -2.51940823218, 0.193800633245, 0.899189868086
2453, -2.20448220316, 0.169575554089, 1.28679113458
2454, -2.39700561331, 0.199750467776, 0.803992515591
2455, -2.09737991164, 0.174781659304, 1.20349345114
2456, -2.26311579944, 0.205737799949, 0.708195200809
2457, -1.98022632451, 0.180020574956, 1.11967080071
2458, -2.1170244961, 0.21170244961, 0.61276080624
2459, -1.85239643409, 0.185239643409, 1.03616570546
2460, -1.95814185559, 0.217571317288, 0.518858923389
2461, -1.71337412364, 0.190374902627, 0.954001557966
2462, -1.786065831, 0.223258228874, 0.42786833801
2463, -1.56280760212, 0.195350950265, 0.874384795759
2464, -1.60065346133, 0.22866478019, 0.34136351696
2465, -1.40057177866, 0.200081682666, 0.79869307734
2466, -1.40209497081, 0.233682495135, 0.261080077843
2467, -1.22683309946, 0.204472183243, 0.728445068113
2468, -1.19098266835, 0.23819653367, 0.188855461277
2469, -1.04210983481, 0.208421966961, 0.665248528618
2470, -0.96836405227, 0.242091013068, 0.12654379092
2471, -0.847318545736, 0.211829636434, 0.610725817055
2472, -0.735767207382, 0.245255735794, 0.0759082272962
2473, -0.643796306459, 0.21459876882, 0.566419698884
2474, -0.495187568472, 0.247593784236, 0.0384994522229
2475, -0.433289122413, 0.216644561207, 0.533687020695
2476, -0.249029122546, 0.249029122546, 0.015534039266
2477, -0.217900482228, 0.217900482228, 0.513592284358
2478, 0, 0.249513144621, 0.00778968606845
2479, 0, 0.218324001543, 0.50681597531
2480, 0.249029122546, 0.249029122546, 0.015534039266
2481, 0.217900482228, 0.217900482228, 0.513592284358
2482, 0.495187568472, 0.247593784236, 0.0384994522229
2483, 0.433289122413, 0.216644561207, 0.533687020695
2484, 0.735767207382, 0.245255735794, 0.0759082272962
2485, 0.643796306459, 0.21459876882, 0.566419698884
2486, 0.96836405227, 0.242091013068, 0.12654379092
2487, 0.847318545736, 0.211829636434, 0.610725817055
2488, 1.19098266835, 0.23819653367, 0.188855461277
2489, 1.04210983481, 0.208421966961, 0.665248528618
2490, 1.40209497081, 0.233682495135, 0.261080077843
2491, 1.22683309946, 0.204472183243, 0.728445068113
2492, 1.60065346133, 0.22866478019, 0.34136351696
2493, 1.40057177866, 0.200081682666, 0.79869307734
2494, 1.786065831, 0.223258228874, 0.42786833801
2495, 1.56280760212, 0.195350950265, 0.874384795759
2496, 1.95814185559, 0.217571317288, 0.518858923389
2497, 1.71337412364, 0.190374902627, 0.954001557966
2498, 2.1170244961, 0.21170244961, 0.61276080624
2499, 1.85239643409, 0.185239643409, 1.03616570546
2500, 2.26311579944, 0.205737799949, 0.708195200809
2501, 1.98022632451, 0.180020574956, 1.11967080071
2502, 2.39700561331, 0.199750467776, 0.803992515591
2503, 2.09737991164, 0.174781659304, 1.20349345114
2504, 2.51940823218, 0.193800633245, 0.899189868086
2505, 2.20448220316, 0.169575554089, 1.28679113458
2506, 2.63110952012, 0.187936394294, 0.993017691296
2507, 2.3022208301, 0.164444345007, 1.36889047988
2508, 2.73292511205, 0.18219500747, 1.08487988048
2509, 2.39130947304, 0.159420631536, 1.44926989542
2510, 2.82566902841, 0.176604314275, 1.17433097159
2511, 2.47246039985, 0.154528774991, 1.52753960015
2512, -2.81744290024, 0.35218036253, 1.18255709976
2513, -2.46526253771, 0.308157817214, 1.53473746229
2514, -2.72445965512, 0.363261287349, 1.09390970121
2515, -2.38390219823, 0.317853626431, 1.45717098856
2516, -2.62244027243, 0.374634324633, 1.00292540294
2517, -2.29463523838, 0.327805034054, 1.37755972757
2518, -2.51058365784, 0.386243639668, 0.910050882654
2519, -2.19676070061, 0.33796318471, 1.29629452232
2520, -2.3880892565, 0.398014876084, 0.815880991328
2521, -2.08957809944, 0.348263016573, 1.21389586741
2522, -2.25418828615, 0.409852415663, 0.721180674697
2523, -1.97241475038, 0.358620863705, 1.13103309036
2524, -2.10818510678, 0.421637021356, 0.626903829154
2525, -1.84466196843, 0.368932393686, 1.04854085051
2526, -1.94950929987, 0.433224288859, 0.534205689127
2527, -1.70582063738, 0.379071252752, 0.967429977986
2528, -1.77777777778, 0.444444444444, 0.444444444444
2529, -1.55555555556, 0.388888888889, 0.888888888889
2530, -1.59286434717, 0.455104099191, 0.359167206473
2531, -1.39375630377, 0.398216086792, 0.814271305664
2532, -1.39497166493, 0.464990554975, 0.280075560198
2533, -1.22060020681, 0.406866735603, 0.745066115173
2534, -1.18469775552, 0.473879102207, 0.208967182342
2535, -1.03661053608, 0.414644214431, 0.682846284549
2536, -0.963086824686, 0.481543412343, 0.147652701255
2537, -0.8427009716, 0.4213504858, 0.629196113598
2538, -0.73165291302, 0.48776860868, 0.097851130562
2539, -0.640196298892, 0.426797532595, 0.585619739242
2540, -0.492365963917, 0.492365963917, 0.0610722886614
2541, -0.430820218428, 0.430820218428, 0.553438252579
2542, -0.247593784236, 0.495187568472, 0.0384994522229
2543, -0.216644561207, 0.433289122413, 0.533687020695
2544, 0, 0.496138938357, 0.0308884931453
2545, 0, 0.434121571062, 0.527027431502
2546, 0.247593784236, 0.495187568472, 0.0384994522229
2547, 0.216644561207, 0.433289122413, 0.533687020695
2548, 0.492365963917, 0.492365963917, 0.0610722886614
2549, 0.430820218428, 0.430820218428, 0.553438252579
2550, 0.73165291302, 0.48776860868, 0.097851130562
2551, 0.640196298892, 0.426797532595, 0.585619739242
2552, 0.963086824686, 0.481543412343, 0.147652701255
2553, 0.8427009716, 0.4213504858, 0.629196113598
2554, 1.18469775552, 0.473879102207, 0.208967182342
2555, 1.03661053608, 0.414644214431, 0.682846284549
2556, 1.39497166493, 0.464990554975, 0.280075560198
2557, 1.22060020681, 0.406866735603, 0.745066115173
2558, 1.59286434717, 0.455104099191, 0.359167206473
2559, 1.39375630377, 0.398216086792, 0.814271305664
2560, 1.77777777778, 0.444444444444, 0.444444444444
2561, 1.55555555556, 0.388888888889, 0.888888888889
2562, 1.94950929987, 0.433224288859, 0.534205689127
2563, 1.70582063738, 0.379071252752, 0.967429977986
2564, 2.10818510678, 0.421637021356, 0.626903829154
2565, 1.84466196843, 0.368932393686, 1.04854085051
2566, 2.25418828615, 0.409852415663, 0.721180674697
2567, 1.97241475038, 0.358620863705, 1.13103309036
2568, 2.3880892565, 0.398014876084, 0.815880991328
2569, 2.08957809944, 0.348263016573, 1.21389586741
2570, 2.51058365784, 0.386243639668, 0.910050882654
2571, 2.19676070061, 0.33796318471, 1.29629452232
2572, 2.62244027243, 0.374634324633, 1.00292540294
2573, 2.29463523838, 0.327805034054, 1.37755972757
2574, 2.72445965512, 0.363261287349, 1.09390970121
2575, 2.38390219823, 0.317853626431, 1.45717098856
2576, 2.81744290024, 0.35218036253, 1.18255709976
2577, 2.46526253771, 0.308157817214, 1.53473746229
2578, -2.80389090777, 0.525729545206, 1.19610909223
2579, -2.45340454429, 0.460013352055, 1.54659545571
2580, -2.71052370872, 0.542104741743, 1.1087747107
2581, -2.37170824513, 0.474341649025, 1.47017787187
2582, -2.60818002386, 0.558895719399, 1.01922282987
2583, -2.28215752088, 0.489033754474, 1.39181997614
2584, -2.49607987583, 0.576018432885, 0.927901691281
2585, -2.18406989135, 0.504016128774, 1.31191397987
2586, -2.37344724688, 0.593361811721, 0.835403670821
2587, -2.07676634102, 0.519191585256, 1.23097821197
2588, -2.23954103366, 0.610783918271, 0.742485769221
2589, -1.95959840445, 0.534435928487, 1.14967504807
2590, -2.09369569036, 0.628108707108, 0.650086895423
2591, -1.83198372907, 0.54959511872, 1.06882603349
2592, -1.93537199005, 0.645123996685, 0.559338684349
2593, -1.6934504913, 0.564483497099, 0.989421348805
2594, -1.76421710854, 0.661581415704, 0.471565782912
2595, -1.54368996998, 0.578883738741, 0.912620060048
2596, -1.58013141435, 0.67719917758, 0.388271052908
2597, -1.38261498756, 0.592549280382, 0.839737171295
2598, -1.38333700249, 0.691668501245, 0.311101326693
2599, -1.21041987718, 0.605209938589, 0.772213660856
2600, -1.17444043903, 0.704664263418, 0.241790595106
2601, -1.02763538415, 0.61658123049, 0.711566770718
2602, -0.954479978035, 0.715859983526, 0.18208008786
2603, -0.835169980781, 0.626377485585, 0.659320076877
2604, -0.724946511996, 0.724946511996, 0.133618602687
2605, -0.634328197997, 0.634328197997, 0.616916277351
2606, -0.48776860868, 0.73165291302, 0.097851130562
2607, -0.426797532595, 0.640196298892, 0.585619739242
2608, -0.245255735794, 0.735767207382, 0.0759082272962
2609, -0.21459876882, 0.643796306459, 0.566419698884
2610, 0, 0.737154140201, 0.0685112522627
2611, 0, 0.645009872676, 0.55994734573
2612, 0.245255735794, 0.735767207382, 0.0759082272962
2613, 0.21459876882, 0.643796306459, 0.566419698884
2614, 0.48776860868, 0.73165291302, 0.097851130562
2615, 0.426797532595, 0.640196298892, 0.585619739242
2616, 0.724946511996, 0.724946511996, 0.133618602687
2617, 0.634328197997, 0.634328197997, 0.616916277351
2618, 0.954479978035, 0.715859983526, 0.18208008786
2619, 0.835169980781, 0.626377485585, 0.659320076877
2620, 1.17444043903, 0.704664263418, 0.241790595106
2621, 1.02763538415, 0.61658123049, 0.711566770718
2622, 1.38333700249, 0.691668501245, 0.311101326693
2623, 1.21041987718, 0.605209938589, 0.772213660856
2624, 1.58013141435, 0.67719917758, 0.388271052908
2625, 1.38261498756, 0.592549280382, 0.839737171295
2626, 1.76421710854, 0.661581415704, 0.471565782912
2627, 1.54368996998, 0.578883738741, 0.912620060048
2628, 1.93537199005, 0.645123996685, 0.559338684349
2629, 1.6934504913, 0.564483497099, 0.989421348805
2630, 2.09369569036, 0.628108707108, 0.650086895423
2631, 1.83198372907, 0.54959511872, 1.06882603349
2632, 2.23954103366, 0.610783918271, 0.742485769221
2633, 1.95959840445, 0.534435928487, 1.14967504807
2634, 2.37344724688, 0.593361811721, 0.835403670821
2635, 2.07676634102, 0.519191585256, 1.23097821197
2636, 2.49607987583, 0.576018432885, 0.927901691281
2637, 2.18406989135, 0.504016128774, 1.31191397987
2638, 2.60818002386, 0.558895719399, 1.01922282987
2639, 2.28215752088, 0.489033754474, 1.39181997614
2640, 2.71052370872, 0.542104741743, 1.1087747107
2641, 2.37170824513, 0.474341649025, 1.47017787187
2642, 2.80389090777, 0.525729545206, 1.19610909223
2643, 2.45340454429, 0.460013352055, 1.54659545571
2644, -2.78524249529, 0.696310623823, 1.21475750471
2645, -2.43708718338, 0.609271795845, 1.56291281662
2646, -2.6913678241, 0.717698086426, 1.1292076543
2647, -2.35494684609, 0.627985825623, 1.48805669751
2648, -2.58860091572, 0.739600261634, 1.04159895347
2649, -2.26502580125, 0.647150228929, 1.41139908428
2650, -2.47619047619, 0.761904761905, 0.952380952381
2651, -2.16666666667, 0.666666666667, 1.33333333333
2652, -2.35339362166, 0.784464540553, 0.862141837789
2653, -2.05921941895, 0.686406472984, 1.25437410807
2654, -2.21950639814, 0.807093235689, 0.771627057246
2655, -1.94206809838, 0.706206581227, 1.17517367509
2656, -2.07390338946, 0.829561355784, 0.681754576863
2657, -1.81466546578, 0.725866186311, 1.09653525475
2658, -1.91608666348, 0.85159407266, 0.593623709361
2659, -1.67657583055, 0.745144813577, 1.01942074569
2660, -1.74574312189, 0.872871560944, 0.508513756224
2661, -1.52752523165, 0.763762615826, 0.944949536696
2662, -1.56280760212, 0.893032915498, 0.42786833801
2663, -1.36745665186, 0.78140380106, 0.874384795759
2664, -1.36752691752, 0.911684611677, 0.353261553292
2665, -1.19658605283, 0.797724035217, 0.80910385913
2666, -1.16051770637, 0.928414165097, 0.286343339612
2667, -1.01545299307, 0.81236239446, 0.75055042216
2668, -0.942809041582, 0.942809041582, 0.228763833672
2669, -0.824957911384, 0.824957911384, 0.700168354463
2670, -0.715859983526, 0.954479978035, 0.18208008786
2671, -0.626377485585, 0.835169980781, 0.659320076877
2672, -0.481543412343, 0.963086824686, 0.147652701255
2673, -0.4213504858, 0.8427009716, 0.629196113598
2674, -0.242091013068, 0.96836405227, 0.12654379092
2675, -0.211829636434, 0.847318545736, 0.610725817055
2676, 0, 0.970142500145, 0.119429999419
2677, 0, 0.848874687627, 0.604501249491
2678, 0.242091013068, 0.96836405227, 0.12654379092
2679, 0.211829636434, 0.847318545736, 0.610725817055
2680, 0.481543412343, 0.963086824686, 0.147652701255
2681, 0.4213504858, 0.8427009716, 0.629196113598
2682, 0.715859983526, 0.954479978035, 0.18208008786
2683, 0.626377485585, 0.835169980781, 0.659320076877
2684, 0.942809041582, 0.942809041582, 0.228763833672
2685, 0.824957911384, 0.824957911384, 0.700168354463
2686, 1.16051770637, 0.928414165097, 0.286343339612
2687, 1.01545299307, 0.81236239446, 0.75055042216
2688, 1.36752691752, 0.911684611677, 0.353261553292
2689, 1.19658605283, 0.797724035217, 0.80910385913
2690, 1.56280760212, 0.893032915498, 0.42786833801
2691, 1.36745665186, 0.78140380106, 0.874384795759
2692, 1.74574312189, 0.872871560944, 0.508513756224
2693, 1.52752523165, 0.763762615826, 0.944949536696
2694, 1.91608666348, 0.85159407266, 0.593623709361
2695, 1.67657583055, 0.745144813577, 1.01942074569
2696, 2.07390338946, 0.829561355784, 0.681754576863
2697, 1.81466546578, 0.725866186311, 1.09653525475
2698, 2.21950639814, 0.807093235689, 0.771627057246
2699, 1.94206809838, 0.706206581227, 1.17517367509
2700, 2.35339362166, 0.784464540553, 0.862141837789
2701, 2.05921941895, 0.686406472984, 1.25437410807
2702, 2.47619047619, 0.761904761905, 0.952380952381
2703, 2.16666666667, 0.666666666667, 1.33333333333
2704, 2.58860091572, 0.739600261634, 1.04159895347
2705, 2.26502580125, 0.647150228929, 1.41139908428
2706, 2.6913678241, 0.717698086426, 1.1292076543
2707, 2.35494684609, 0.627985825623, 1.48805669751
2708, 2.78524249529, 0.696310623823, 1.21475750471
2709, 2.43708718338, 0.609271795845, 1.56291281662
2710, -2.76180385281, 0.863063704004, 1.23819614719
2711, -2.41657837121, 0.755180741004, 1.58342162879
2712, -2.66732534685, 0.889108448949, 1.15485296336
2713, -2.33390967849, 0.77796989283, 1.51049634294
2714, -2.56406386038, 0.915737092991, 1.06964130243
2715, -2.24355587783, 0.801269956367, 1.43593613962
2716, -2.45130350811, 0.942809041582, 0.983011066937
2717, -2.1448905696, 0.824957911384, 1.36013468357
2718, -2.32834200035, 0.970142500145, 0.895543999535
2719, -2.03729925031, 0.848874687627, 1.28360099959
2720, -2.19452053944, 0.997509336108, 0.807970124456
2721, -1.92020547201, 0.872820669094, 1.2069738589
2722, -2.04926207831, 1.02463103916, 0.721180674697
2723, -1.79310431852, 0.896552159262, 1.13103309036
2724, -1.89211799242, 1.05117666246, 0.636234680143
2725, -1.65560324337, 0.919779579648, 1.05670534513
2726, -1.72282208659, 1.07676380412, 0.554355826828
2727, -1.50746932576, 0.942168328602, 0.985061348474
2728, -1.54134927118, 1.10096376513, 0.476915951596
2729, -1.34868061228, 0.963343294486, 0.917301457646
2730, -1.34797429512, 1.1233119126, 0.405401879669
2731, -1.17947750823, 0.982897923528, 0.85472664471
2732, -1.14332390095, 1.14332390095, 0.34136351696
2733, -1.00040841333, 1.00040841333, 0.79869307734
2734, -0.928414165097, 1.16051770637, 0.286343339612
2735, -0.81236239446, 1.01545299307, 0.75055042216
2736, -0.704664263418, 1.17444043903, 0.241790595106
2737, -0.61658123049, 1.02763538415, 0.711566770718
2738, -0.473879102207, 1.18469775552, 0.208967182342
2739, -0.414644214431, 1.03661053608, 0.682846284549
2740, -0.23819653367, 1.19098266835, 0.188855461277
2741, -0.208421966961, 1.04210983481, 0.665248528618
2742, 0, 1.19309997254, 0.18208008786
2743, 0, 1.04396247598, 0.659320076877
2744, 0.23819653367, 1.19098266835, 0.188855461277
2745, 0.208421966961, 1.04210983481, 0.665248528618
2746, 0.473879102207, 1.18469775552, 0.208967182342
2747, 0.414644214431, 1.03661053608, 0.682846284549
2748, 0.704664263418, 1.17444043903, 0.241790595106
2749, 0.61658123049, 1.02763538415, 0.711566770718
2750, 0.928414165097, 1.16051770637, 0.286343339612
2751, 0.81236239446, 1.01545299307, 0.75055042216
2752, 1.14332390095, 1.14332390095, 0.34136351696
2753, 1.00040841333, 1.00040841333, 0.79869307734
2754, 1.34797429512, 1.1233119126, 0.405401879669
2755, 1.17947750823, 0.982897923528, 0.85472664471
2756, 1.54134927118, 1.10096376513, 0.476915951596
2757, 1.34868061228, 0.963343294486, 0.917301457646
2758, 1.72282208659, 1.07676380412, 0.554355826828
2759, 1.50746932576, 0.942168328602, 0.985061348474
2760, 1.89211799242, 1.05117666246, 0.636234680143
2761, 1.65560324337, 0.919779579648, 1.05670534513
2762, 2.04926207831, 1.02463103916, 0.721180674697
2763, 1.79310431852, 0.896552159262, 1.13103309036
2764, 2.19452053944, 0.997509336108, 0.807970124456
2765, 1.92020547201, 0.872820669094, 1.2069738589
2766, 2.32834200035, 0.970142500145, 0.895543999535
2767, 2.03729925031, 0.848874687627, 1.28360099959
2768, 2.45130350811, 0.942809041582, 0.983011066937
2769, 2.1448905696, 0.824957911384, 1.36013468357
2770, 2.56406386038, 0.915737092991, 1.06964130243
2771, 2.24355587783, 0.801269956367, 1.43593613962
2772, 2.66732534685, 0.889108448949, 1.15485296336
2773, 2.33390967849, 0.77796989283, 1.51049634294
2774, 2.76180385281, 0.863063704004, 1.23819614719
2775, 2.41657837121, 0.755180741004, 1.58342162879
2776, -2.73394450469, 1.02522918926, 1.26605549531
2777, -2.39220144161, 0.897075540603, 1.60779855839
2778, -2.6387969828, 1.05551879312, 1.18528321835
2779, -2.30894735995, 0.92357894398, 1.53712281605
2780, -2.53500088919, 1.08642895251, 1.10285612664
2781, -2.21812577804, 0.950625333446, 1.46499911081
2782, -2.42188145073, 1.1177914388, 1.01922282987
2783, -2.11914626939, 0.978067508949, 1.39181997614
2784, -2.29878308453, 1.14939154227, 0.934955887292
2785, -2.01143519896, 1.00571759948, 1.31808640138
2786, -2.16509845774, 1.18096279513, 0.850765879647
2787, -1.89446115052, 1.03334244574, 1.24442014469
2788, -2.0203050891, 1.21218305346, 0.767511857433
2789, -1.76776695297, 1.06066017178, 1.17157287525
2790, -1.86400934308, 1.24267289539, 0.686205612298
2791, -1.6310081752, 1.08733878346, 1.10042991076
2792, -1.69599660801, 1.27199745601, 0.60800678398
2793, -1.48399703201, 1.11299777401, 1.03200593598
2794, -1.51628501101, 1.29967286658, 0.534205689127
2795, -1.32674938463, 1.13721375826, 0.967429977986
2796, -1.3251783129, 1.3251783129, 0.466191165605
2797, -1.15953102379, 1.15953102379, 0.907917269904
2798, -1.1233119126, 1.34797429512, 0.405401879669
2799, -0.982897923528, 1.17947750823, 0.85472664471
2800, -0.911684611677, 1.36752691752, 0.353261553292
2801, -0.797724035217, 1.19658605283, 0.80910385913
2802, -0.691668501245, 1.38333700249, 0.311101326693
2803, -0.605209938589, 1.21041987718, 0.772213660856
2804, -0.464990554975, 1.39497166493, 0.280075560198
2805, -0.406866735603, 1.22060020681, 0.745066115173
2806, -0.233682495135, 1.40209497081, 0.261080077843
2807, -0.204472183243, 1.22683309946, 0.728445068113
2808, 0, 1.40449376635, 0.254683289724
2809, 0, 1.22893204556, 0.722847878508
2810, 0.233682495135, 1.40209497081, 0.261080077843
2811, 0.204472183243, 1.22683309946, 0.728445068113
2812, 0.464990554975, 1.39497166493, 0.280075560198
2813, 0.406866735603, 1.22060020681, 0.745066115173
2814, 0.691668501245, 1.38333700249, 0.311101326693
2815, 0.605209938589, 1.21041987718, 0.772213660856
2816, 0.911684611677, 1.36752691752, 0.353261553292
2817, 0.797724035217, 1.19658605283, 0.80910385913
2818, 1.1233119126, 1.34797429512, 0.405401879669
2819, 0.982897923528, 1.17947750823, 0.85472664471
2820, 1.3251783129, 1.3251783129, 0.466191165605
2821, 1.15953102379, 1.15953102379, 0.907917269904
2822, 1.51628501101, 1.29967286658, 0.534205689127
2823, 1.32674938463, 1.13721375826, 0.967429977986
2824, 1.69599660801, 1.27199745601, 0.60800678398
2825, 1.48399703201, 1.11299777401, 1.03200593598
2826, 1.86400934308, 1.24267289539, 0.686205612298
2827, 1.6310081752, 1.08733878346, 1.10042991076
2828, 2.0203050891, 1.21218305346, 0.767511857433
2829, 1.76776695297, 1.06066017178, 1.17157287525
2830, 2.16509845774, 1.18096279513, 0.850765879647
2831, 1.89446115052, 1.03334244574, 1.24442014469
2832, 2.29878308453, 1.14939154227, 0.934955887292
2833, 2.01143519896, 1.00571759948, 1.31808640138
2834, 2.42188145073, 1.1177914388, 1.01922282987
2835, 2.11914626939, 0.978067508949, 1.39181997614
2836, 2.53500088919, 1.08642895251, 1.10285612664
2837, 2.21812577804, 0.950625333446, 1.46499911081
2838, 2.6387969828, 1.05551879312, 1.18528321835
2839, 2.30894735995, 0.92357894398, 1.53712281605
2840, 2.73394450469, 1.02522918926, 1.26605549531
2841, 2.39220144161, 0.897075540603, 1.60779855839
2842, -2.70208211789, 1.18216092658, 1.29791788211
2843, -2.36432185316, 1.03439081076, 1.63567814684
2844, -2.60623345658, 1.21624227974, 1.22001764632
2845, -2.28045427451, 1.06421199477, 1.56751544053
2846, -2.50189548901, 1.2509477445, 1.1406908697
2847, -2.18915855288, 1.09457927644, 1.49810451099
2848, -2.38843910331, 1.28608259409, 1.06038264208
2849, -2.08988421539, 1.12532226983, 1.42783481182
2850, -2.26526005528, 1.32140169891, 0.979653259629
2851, -1.98210254837, 1.15622648655, 1.35719660218
2852, -2.13180696569, 1.35660443271, 0.899189868086
2853, -1.86533109498, 1.18702887862, 1.28679113458
2854, -1.98761598, 1.391331186, 0.819814432
2855, -1.7391639825, 1.21741478775, 1.217337628
2856, -1.83235175481, 1.42516247597, 0.742485769221
2857, -1.60330778546, 1.24701716647, 1.14967504807
2858, -1.66585346015, 1.45762177763, 0.66829307971
2859, -1.45762177763, 1.27541905542, 1.08475644475
2860, -1.48818320967, 1.48818320967, 0.598438377903
2861, -1.30216030846, 1.30216030846, 1.02363358066
2862, -1.29967286658, 1.51628501101, 0.534205689127
2863, -1.13721375826, 1.32674938463, 0.967429977986
2864, -1.10096376513, 1.54134927118, 0.476915951596
2865, -0.963343294486, 1.34868061228, 0.917301457646
2866, -0.893032915498, 1.56280760212, 0.42786833801
2867, -0.78140380106, 1.36745665186, 0.874384795759
2868, -0.67719917758, 1.58013141435, 0.388271052908
2869, -0.592549280382, 1.38261498756, 0.839737171295
2870, -0.455104099191, 1.59286434717, 0.359167206473
2871, -0.398216086792, 1.39375630377, 0.814271305664
2872, -0.22866478019, 1.60065346133, 0.34136351696
2873, -0.200081682666, 1.40057177866, 0.79869307734
2874, 0, 1.60327533608, 0.335370660391
2875, 0, 1.40286591907, 0.793449327842
2876, 0.22866478019, 1.60065346133, 0.34136351696
2877, 0.200081682666, 1.40057177866, 0.79869307734
2878, 0.455104099191, 1.59286434717, 0.359167206473
2879, 0.398216086792, 1.39375630377, 0.814271305664
2880, 0.67719917758, 1.58013141435, 0.388271052908
2881, 0.592549280382, 1.38261498756, 0.839737171295
2882, 0.893032915498, 1.56280760212, 0.42786833801
2883, 0.78140380106, 1.36745665186, 0.874384795759
2884, 1.10096376513, 1.54134927118, 0.476915951596
2885, 0.963343294486, 1.34868061228, 0.917301457646
2886, 1.29967286658, 1.51628501101, 0.534205689127
2887, 1.13721375826, 1.32674938463, 0.967429977986
2888, 1.48818320967, 1.48818320967, 0.598438377903
2889, 1.30216030846, 1.30216030846, 1.02363358066
2890, 1.66585346015, 1.45762177763, 0.66829307971
2891, 1.45762177763, 1.27541905542, 1.08475644475
2892, 1.83235175481, 1.42516247597, 0.742485769221
2893, 1.60330778546, 1.24701716647, 1.14967504807
2894, 1.98761598, 1.391331186, 0.819814432
2895, 1.7391639825, 1.21741478775, 1.217337628
2896, 2.13180696569, 1.35660443271, 0.899189868086
2897, 1.86533109498, 1.18702887862, 1.28679113458
2898, 2.26526005528, 1.32140169891, 0.979653259629
2899, 1.98210254837, 1.15622648655, 1.35719660218
2900, 2.38843910331, 1.28608259409, 1.06038264208
2901, 2.08988421539, 1.12532226983, 1.42783481182
2902, 2.50189548901, 1.2509477445, 1.1406908697
2903, 2.18915855288, 1.09457927644, 1.49810451099
2904, 2.60623345658, 1.21624227974, 1.22001764632
2905, 2.28045427451, 1.06421199477, 1.56751544053
2906, 2.70208211789, 1.18216092658, 1.29791788211
2907, 2.36432185316, 1.03439081076, 1.63567814684
2908, -2.66666666667, 1.33333333333, 1.33333333333
2909, -2.33333333333, 1.16666666667, 1.66666666667
2910, -2.57011762127, 1.37072939801, 1.25854120398
2911, -2.24885291861, 1.19938822326, 1.60122355348
2912, -2.46526253771, 1.40872145012, 1.18255709976
2913, -2.1571047205, 1.23263126886, 1.53473746229
2914, -2.35152128456, 1.44709002127, 1.10581995746
2915, -2.05758112399, 1.26620376861, 1.46759246278
2916, -2.22834405812, 1.48556270542, 1.02887458917
2917, -1.94980105086, 1.29986736724, 1.40026526552
2918, -2.09523809524, 1.52380952381, 0.952380952381
2919, -1.83333333333, 1.33333333333, 1.33333333333
2920, -1.9518001459, 1.56144011672, 0.877119766565
2921, -1.70782512766, 1.36626010213, 1.26747979574
2922, -1.79775420998, 1.5980037422, 0.803992515591
2923, -1.57303493373, 1.39825327443, 1.20349345114
2924, -1.63299316186, 1.63299316186, 0.734013676289
2925, -1.42886901662, 1.42886901662, 1.14226196675
2926, -1.45762177763, 1.66585346015, 0.66829307971
2927, -1.27541905542, 1.45762177763, 1.08475644475
2928, -1.27199745601, 1.69599660801, 0.60800678398
2929, -1.11299777401, 1.48399703201, 1.03200593598
2930, -1.07676380412, 1.72282208659, 0.554355826828
2931, -0.942168328602, 1.50746932576, 0.985061348474
2932, -0.872871560944, 1.74574312189, 0.508513756224
2933, -0.763762615826, 1.52752523165, 0.944949536696
2934, -0.661581415704, 1.76421710854, 0.471565782912
2935, -0.578883738741, 1.54368996998, 0.912620060048
2936, -0.444444444444, 1.77777777778, 0.444444444444
2937, -0.388888888889, 1.55555555556, 0.888888888889
2938, -0.223258228874, 1.786065831, 0.42786833801
2939, -0.195350950265, 1.56280760212, 0.874384795759
2940, 0, 1.788854382, 0.422291236
2941, 0, 1.56524758425, 0.8695048315
2942, 0.223258228874, 1.786065831, 0.42786833801
2943, 0.195350950265, 1.56280760212, 0.874384795759
2944, 0.444444444444, 1.77777777778, 0.444444444444
2945, 0.388888888889, 1.55555555556, 0.888888888889
2946, 0.661581415704, 1.76421710854, 0.471565782912
2947, 0.578883738741, 1.54368996998, 0.912620060048
2948, 0.872871560944, 1.74574312189, 0.508513756224
2949, 0.763762615826, 1.52752523165, 0.944949536696
2950, 1.07676380412, 1.72282208659, 0.554355826828
2951, 0.942168328602, 1.50746932576, 0.985061348474
2952, 1.27199745601, 1.69599660801, 0.60800678398
2953, 1.11299777401, 1.48399703201, 1.03200593598
2954, 1.45762177763, 1.66585346015, 0.66829307971
2955, 1.27541905542, 1.45762177763, 1.08475644475
2956, 1.63299316186, 1.63299316186, 0.734013676289
2957, 1.42886901662, 1.42886901662, 1.14226196675
2958, 1.79775420998, 1.5980037422, 0.803992515591
2959, 1.57303493373, 1.39825327443, 1.20349345114
2960, 1.9518001459, 1.56144011672, 0.877119766565
2961, 1.70782512766, 1.36626010213, 1.26747979574
2962, 2.09523809524, 1.52380952381, 0.952380952381
2963, 1.83333333333, 1.33333333333, 1.33333333333
2964, 2.22834405812, 1.48556270542, 1.02887458917
2965, 1.94980105086, 1.29986736724, 1.40026526552
2966, 2.35152128456, 1.44709002127, 1.10581995746
2967, 2.05758112399, 1.26620376861, 1.46759246278
2968, 2.46526253771, 1.40872145012, 1.18255709976
2969, 2.1571047205, 1.23263126886, 1.53473746229
2970, 2.57011762127, 1.37072939801, 1.25854120398
2971, 2.24885291861, 1.19938822326, 1.60122355348
2972, 2.66666666667, 1.33333333333, 1.33333333333
2973, 2.33333333333, 1.16666666667, 1.66666666667
2974, -2.62816499953, 1.47834281224, 1.37183500047
2975, -2.29964437459, 1.29354996071, 1.70035562541
2976, -2.53094724366, 1.51856834619, 1.3003229401
2977, -2.2145788382, 1.32874730292, 1.63778257259
2978, -2.42562925822, 1.55933309457, 1.22785227633
2979, -2.12242560094, 1.36441645775, 1.57437074178
2980, -2.31168196727, 1.60039520811, 1.15485296336
2981, -2.02272172136, 1.40034580709, 1.51049634294
2982, -2.18861161242, 1.64145870932, 1.08185118344
2983, -1.91503516087, 1.43627637065, 1.44661978551
2984, -2.05598497947, 1.68216952866, 1.0094763935
2985, -1.79898685704, 1.47189833758, 1.38329184431
2986, -1.91345949294, 1.72211354365, 0.938464811296
2987, -1.67427705632, 1.50684935069, 1.32115670988
2988, -1.76081755696, 1.76081755696, 0.869657676515
2989, -1.54071536234, 1.54071536234, 1.26095046695
2990, -1.5980037422, 1.79775420998, 0.803992515591
2991, -1.39825327443, 1.57303493373, 1.20349345114
2992, -1.42516247597, 1.83235175481, 0.742485769221
2993, -1.24701716647, 1.60330778546, 1.14967504807
2994, -1.24267289539, 1.86400934308, 0.686205612298
2995, -1.08733878346, 1.6310081752, 1.10042991076
2996, -1.05117666246, 1.89211799242, 0.636234680143
2997, -0.919779579648, 1.65560324337, 1.05670534513
2998, -0.85159407266, 1.91608666348, 0.593623709361
2999, -0.745144813577, 1.67657583055, 1.01942074569
3000, -0.645123996685, 1.93537199005, 0.559338684349
3001, -0.564483497099, 1.6934504913, 0.989421348805
3002, -0.433224288859, 1.94950929987, 0.534205689127
3003, -0.379071252752, 1.70582063738, 0.967429977986
3004, -0.217571317288, 1.95814185559, 0.518858923389
3005, -0.190374902627, 1.71337412364, 0.954001557966
3006, 0, 1.96104495853, 0.513697851502
3007, 0, 1.71591433871, 0.949485620064
3008, 0.217571317288, 1.95814185559, 0.518858923389
3009, 0.190374902627, 1.71337412364, 0.954001557966
3010, 0.433224288859, 1.94950929987, 0.534205689127
3011, 0.379071252752, 1.70582063738, 0.967429977986
3012, 0.645123996685, 1.93537199005, 0.559338684349
3013, 0.564483497099, 1.6934504913, 0.989421348805
3014, 0.85159407266, 1.91608666348, 0.593623709361
3015, 0.745144813577, 1.67657583055, 1.01942074569
3016, 1.05117666246, 1.89211799242, 0.636234680143
3017, 0.919779579648, 1.65560324337, 1.05670534513
3018, 1.24267289539, 1.86400934308, 0.686205612298
3019, 1.08733878346, 1.6310081752, 1.10042991076
3020, 1.42516247597, 1.83235175481, 0.742485769221
3021, 1.24701716647, 1.60330778546, 1.14967504807
3022, 1.5980037422, 1.79775420998, 0.803992515591
3023, 1.39825327443, 1.57303493373, 1.20349345114
3024, 1.76081755696, 1.76081755696, 0.869657676515
3025, 1.54071536234, 1.54071536234, 1.26095046695
3026, 1.91345949294, 1.72211354365, 0.938464811296
3027, 1.67427705632, 1.50684935069, 1.32115670988
3028, 2.05598497947, 1.68216952866, 1.0094763935
3029, 1.79898685704, 1.47189833758, 1.38329184431
3030, 2.18861161242, 1.64145870932, 1.08185118344
3031, 1.91503516087, 1.43627637065, 1.44661978551
3032, 2.31168196727, 1.60039520811, 1.15485296336
3033, 2.02272172136, 1.40034580709, 1.51049634294
3034, 2.42562925822, 1.55933309457, 1.22785227633
3035, 2.12242560094, 1.36441645775, 1.57437074178
3036, 2.53094724366, 1.51856834619, 1.3003229401
3037, 2.2145788382, 1.32874730292, 1.63778257259
3038, 2.62816499953, 1.47834281224, 1.37183500047
3039, 2.29964437459, 1.29354996071, 1.70035562541
3040, -2.58704666705, 1.61690416691, 1.41295333295
3041, -2.26366583367, 1.41479114605, 1.73633416633
3042, -2.48921944094, 1.65947962729, 1.34483259634
3043, -2.17806701082, 1.45204467388, 1.67672852179
3044, -2.38351828612, 1.70251306152, 1.27597910157
3045, -2.08557850036, 1.48969892883, 1.61648171388
3046, -2.26946605845, 1.74574312189, 1.20681100498
3047, -1.98578280115, 1.52752523165, 1.55595962936
3048, -2.1466252584, 1.788854382, 1.1378329888
3049, -1.8782971011, 1.56524758425, 1.4956038652
3050, -2.01462160458, 1.83147418598, 1.06964130243
3051, -1.76279390401, 1.60253991273, 1.43593613962
3052, -1.87317162316, 1.87317162316, 1.00292540294
3053, -1.63902517027, 1.63902517027, 1.37755972757
3054, -1.72211354365, 1.91345949294, 0.938464811296
3055, -1.50684935069, 1.67427705632, 1.32115670988
3056, -1.56144011672, 1.9518001459, 0.877119766565
3057, -1.36626010213, 1.70782512766, 1.26747979574
3058, -1.391331186, 1.98761598, 0.819814432
3059, -1.21741478775, 1.7391639825, 1.217337628
3060, -1.21218305346, 2.0203050891, 0.767511857433
3061, -1.06066017178, 1.76776695297, 1.17157287525
3062, -1.02463103916, 2.04926207831, 0.721180674697
3063, -0.896552159262, 1.79310431852, 1.13103309036
3064, -0.829561355784, 2.07390338946, 0.681754576863
3065, -0.725866186311, 1.81466546578, 1.09653525475
3066, -0.628108707108, 2.09369569036, 0.650086895423
3067, -0.54959511872, 1.83198372907, 1.06882603349
3068, -0.421637021356, 2.10818510678, 0.626903829154
3069, -0.368932393686, 1.84466196843, 1.04854085051
3070, -0.21170244961, 2.1170244961, 0.61276080624
3071, -0.185239643409, 1.85239643409, 1.03616570546
3072, 0, 2.11999576001, 0.60800678398
3073, 0, 1.85499629001, 1.03200593598
3074, 0.21170244961, 2.1170244961, 0.61276080624
3075, 0.185239643409, 1.85239643409, 1.03616570546
3076, 0.421637021356, 2.10818510678, 0.626903829154
3077, 0.368932393686, 1.84466196843, 1.04854085051
3078, 0.628108707108, 2.09369569036, 0.650086895423
3079, 0.54959511872, 1.83198372907, 1.06882603349
3080, 0.829561355784, 2.07390338946, 0.681754576863
3081, 0.725866186311, 1.81466546578, 1.09653525475
3082, 1.02463103916, 2.04926207831, 0.721180674697
3083, 0.896552159262, 1.79310431852, 1.13103309036
3084, 1.21218305346, 2.0203050891, 0.767511857433
3085, 1.06066017178, 1.76776695297, 1.17157287525
3086, 1.391331186, 1.98761598, 0.819814432
3087, 1.21741478775, 1.7391639825, 1.217337628
3088, 1.56144011672, 1.9518001459, 0.877119766565
3089, 1.36626010213, 1.70782512766, 1.26747979574
3090, 1.72211354365, 1.91345949294, 0.938464811296
3091, 1.50684935069, 1.67427705632, 1.32115670988
3092, 1.87317162316, 1.87317162316, 1.00292540294
3093, 1.63902517027, 1.63902517027, 1.37755972757
3094, 2.01462160458, 1.83147418598, 1.06964130243
3095, 1.76279390401, 1.60253991273, 1.43593613962
3096, 2.1466252584, 1.788854382, 1.1378329888
3097, 1.8782971011, 1.56524758425, 1.4956038652
3098, 2.26946605845, 1.74574312189, 1.20681100498
3099, 1.98578280115, 1.52752523165, 1.55595962936
3100, 2.38351828612, 1.70251306152, 1.27597910157
3101, 2.08557850036, 1.48969892883, 1.61648171388
3102, 2.48921944094, 1.65947962729, 1.34483259634
3103, 2.17806701082, 1.45204467388, 1.67672852179
3104, 2.58704666705, 1.61690416691, 1.41295333295
3105, 2.26366583367, 1.41479114605, 1.73633416633
3106, -2.54377162725, 1.74884299374, 1.45622837275
3107, -2.22580017385, 1.53023761952, 1.77419982615
3108, -2.44541743782, 1.79330612107, 1.39155473299
3109, -2.13974025809, 1.56914285593, 1.71761039137
3110, -2.33943356161, 1.83812636984, 1.32636164388
3111, -2.04700436641, 1.60836057361, 1.66056643839
3112, -2.22539456106, 1.88302616705, 1.26105284793
3113, -1.94722024092, 1.64764789617, 1.60342124194
3114, -2.10291818082, 1.92767499909, 1.19610909223
3115, -1.84005340822, 1.6867156242, 1.54659545571
3116, -1.97168714577, 1.97168714577, 1.13209142433
3117, -1.72522625255, 1.72522625255, 1.49057999629
3118, -1.83147418598, 2.01462160458, 1.06964130243
3119, -1.60253991273, 1.76279390401, 1.43593613962
3120, -1.68216952866, 2.05598497947, 1.0094763935
3121, -1.47189833758, 1.79898685704, 1.38329184431
3122, -1.52380952381, 2.09523809524, 0.952380952381
3123, -1.33333333333, 1.83333333333, 1.33333333333
3124, -1.35660443271, 2.13180696569, 0.899189868086
3125, -1.18702887862, 1.86533109498, 1.28679113458
3126, -1.18096279513, 2.16509845774, 0.850765879647
3127, -1.03334244574, 1.89446115052, 1.24442014469
3128, -0.997509336108, 2.19452053944, 0.807970124456
3129, -0.872820669094, 1.92020547201, 1.2069738589
3130, -0.807093235689, 2.21950639814, 0.771627057246
3131, -0.706206581227, 1.94206809838, 1.17517367509
3132, -0.610783918271, 2.23954103366, 0.742485769221
3133, -0.534435928487, 1.95959840445, 1.14967504807
3134, -0.409852415663, 2.25418828615, 0.721180674697
3135, -0.358620863705, 1.97241475038, 1.13103309036
3136, -0.205737799949, 2.26311579944, 0.708195200809
3137, -0.180020574956, 1.98022632451, 1.11967080071
3138, 0, 2.26611529155, 0.703832303203
3139, 0, 1.9828508801, 1.1158532653
3140, 0.205737799949, 2.26311579944, 0.708195200809
3141, 0.180020574956, 1.98022632451, 1.11967080071
3142, 0.409852415663, 2.25418828615, 0.721180674697
3143, 0.358620863705, 1.97241475038, 1.13103309036
3144, 0.610783918271, 2.23954103366, 0.742485769221
3145, 0.534435928487, 1.95959840445, 1.14967504807
3146, 0.807093235689, 2.21950639814, 0.771627057246
3147, 0.706206581227, 1.94206809838, 1.17517367509
3148, 0.997509336108, 2.19452053944, 0.807970124456
3149, 0.872820669094, 1.92020547201, 1.2069738589
3150, 1.18096279513, 2.16509845774, 0.850765879647
3151, 1.03334244574, 1.89446115052, 1.24442014469
3152, 1.35660443271, 2.13180696569, 0.899189868086
3153, 1.18702887862, 1.86533109498, 1.28679113458
3154, 1.52380952381, 2.09523809524, 0.952380952381
3155, 1.33333333333, 1.83333333333, 1.33333333333
3156, 1.68216952866, 2.05598497947, 1.0094763935
3157, 1.47189833758, 1.79898685704, 1.38329184431
3158, 1.83147418598, 2.01462160458, 1.06964130243
3159, 1.60253991273, 1.76279390401, 1.43593613962
3160, 1.97168714577, 1.97168714577, 1.13209142433
3161, 1.72522625255, 1.72522625255, 1.49057999629
3162, 2.10291818082, 1.92767499909, 1.19610909223
3163, 1.84005340822, 1.6867156242, 1.54659545571
3164, 2.22539456106, 1.88302616705, 1.26105284793
3165, 1.94722024092, 1.64764789617, 1.60342124194
3166, 2.33943356161, 1.83812636984, 1.32636164388
3167, 2.04700436641, 1.60836057361, 1.66056643839
3168, 2.44541743782, 1.79330612107, 1.39155473299
3169, 2.13974025809, 1.56914285593, 1.71761039137
3170, 2.54377162725, 1.74884299374, 1.45622837275
3171, 2.22580017385, 1.53023761952, 1.77419982615
3172, -2.49878019022, 1.87408514266, 1.50121980978
3173, -2.18643266644, 1.63982449983, 1.81356733356
3174, -2.4, 1.92, 1.44
3175, -2.1, 1.68, 1.76
3176, -2.29384937745, 1.96615660925, 1.37845785434
3177, -2.00711820527, 1.72038703309, 1.70615062255
3178, -2.17995340238, 2.01226467912, 1.31698042784
3179, -1.90745922708, 1.76073159423, 1.65235787436
3180, -2.05798302171, 2.05798302171, 1.25602263772
3181, -1.800735144, 1.800735144, 1.599019808
3182, -1.92767499909, 2.10291818082, 1.19610909223
3183, -1.6867156242, 1.84005340822, 1.54659545571
3184, -1.788854382, 2.1466252584, 1.1378329888
3185, -1.56524758425, 1.8782971011, 1.4956038652
3186, -1.64145870932, 2.18861161242, 1.08185118344
3187, -1.43627637065, 1.91503516087, 1.44661978551
3188, -1.48556270542, 2.22834405812, 1.02887458917
3189, -1.29986736724, 1.94980105086, 1.40026526552
3190, -1.32140169891, 2.26526005528, 0.979653259629
3191, -1.15622648655, 1.98210254837, 1.35719660218
3192, -1.14939154227, 2.29878308453, 0.934955887292
3193, -1.00571759948, 2.01143519896, 1.31808640138
3194, -0.970142500145, 2.32834200035, 0.895543999535
3195, -0.848874687627, 2.03729925031, 1.28360099959
3196, -0.784464540553, 2.35339362166, 0.862141837789
3197, -0.686406472984, 2.05921941895, 1.25437410807
3198, -0.593361811721, 2.37344724688, 0.835403670821
3199, -0.519191585256, 2.07676634102, 1.23097821197
3200, -0.398014876084, 2.3880892565, 0.815880991328
3201, -0.348263016573, 2.08957809944, 1.21389586741
3202, -0.199750467776, 2.39700561331, 0.803992515591
3203, -0.174781659304, 2.09737991164, 1.20349345114
3204, 0, 2.4, 0.8
3205, 0, 2.1, 1.2
3206, 0.199750467776, 2.39700561331, 0.803992515591
3207, 0.174781659304, 2.09737991164, 1.20349345114
3208, 0.398014876084, 2.3880892565, 0.815880991328
3209, 0.348263016573, 2.08957809944, 1.21389586741
3210, 0.593361811721, 2.37344724688, 0.835403670821
3211, 0.519191585256, 2.07676634102, 1.23097821197
3212, 0.784464540553, 2.35339362166, 0.862141837789
3213, 0.686406472984, 2.05921941895, 1.25437410807
3214, 0.970142500145, 2.32834200035, 0.895543999535
3215, 0.848874687627, 2.03729925031, 1.28360099959
3216, 1.14939154227, 2.29878308453, 0.934955887292
3217, 1.00571759948, 2.01143519896, 1.31808640138
3218, 1.32140169891, 2.26526005528, 0.979653259629
3219, 1.15622648655, 1.98210254837, 1.35719660218
3220, 1.48556270542, 2.22834405812, 1.02887458917
3221, 1.29986736724, 1.94980105086, 1.40026526552
3222, 1.64145870932, 2.18861161242, 1.08185118344
3223, 1.43627637065, 1.91503516087, 1.44661978551
3224, 1.788854382, 2.1466252584, 1.1378329888
3225, 1.56524758425, 1.8782971011, 1.4956038652
3226, 1.92767499909, 2.10291818082, 1.19610909223
3227, 1.6867156242, 1.84005340822, 1.54659545571
3228, 2.05798302171, 2.05798302171, 1.25602263772
3229, 1.800735144, 1.800735144, 1.599019808
3230, 2.17995340238, 2.01226467912, 1.31698042784
3231, 1.90745922708, 1.76073159423, 1.65235787436
3232, 2.29384937745, 1.96615660925, 1.37845785434
3233, 2.00711820527, 1.72038703309, 1.70615062255
3234, 2.4, 1.92, 1.44
3235, 2.1, 1.68, 1.76
3236, 2.49878019022, 1.87408514266, 1.50121980978
3237, 2.18643266644, 1.63982449983, 1.81356733356
3238, -2.45248532877, 1.99264432962, 1.54751467123
3239, -2.14592466267, 1.74356378842, 1.85407533733
3240, -2.35339362166, 2.03960780544, 1.48971347023
3241, -2.05921941895, 1.78465682976, 1.80349928645
3242, -2.24720259093, 2.08668812015, 1.4317684675
3243, -1.96630226707, 1.82585210513, 1.75279740907
3244, -2.13358584364, 2.13358584364, 1.37404819244
3245, -1.86688761319, 1.86688761319, 1.70229216839
3246, -2.01226467912, 2.17995340238, 1.31698042784
3247, -1.76073159423, 1.90745922708, 1.65235787436
3248, -1.88302616705, 2.22539456106, 1.26105284793
3249, -1.64764789617, 1.94722024092, 1.60342124194
3250, -1.74574312189, 2.26946605845, 1.20681100498
3251, -1.52752523165, 1.98578280115, 1.55595962936
3252, -1.60039520811, 2.31168196727, 1.15485296336
3253, -1.40034580709, 2.02272172136, 1.51049634294
3254, -1.44709002127, 2.35152128456, 1.10581995746
3255, -1.26620376861, 2.05758112399, 1.46759246278
3256, -1.28608259409, 2.38843910331, 1.06038264208
3257, -1.12532226983, 2.08988421539, 1.42783481182
3258, -1.1177914388, 2.42188145073, 1.01922282987
3259, -0.978067508949, 2.11914626939, 1.39181997614
3260, -0.942809041582, 2.45130350811, 0.983011066937
3261, -0.824957911384, 2.1448905696, 1.36013468357
3262, -0.761904761905, 2.47619047619, 0.952380952381
3263, -0.666666666667, 2.16666666667, 1.33333333333
3264, -0.576018432885, 2.49607987583, 0.927901691281
3265, -0.504016128774, 2.18406989135, 1.31191397987
3266, -0.386243639668, 2.51058365784, 0.910050882654
3267, -0.33796318471, 2.19676070061, 1.29629452232
3268, -0.193800633245, 2.51940823218, 0.899189868086
3269, -0.169575554089, 2.20448220316, 1.28679113458
3270, 0, 2.52237050038, 0.895543999535
3271, 0, 2.20707418783, 1.28360099959
3272, 0.193800633245, 2.51940823218, 0.899189868086
3273, 0.169575554089, 2.20448220316, 1.28679113458
3274, 0.386243639668, 2.51058365784, 0.910050882654
3275, 0.33796318471, 2.19676070061, 1.29629452232
3276, 0.576018432885, 2.49607987583, 0.927901691281
3277, 0.504016128774, 2.18406989135, 1.31191397987
3278, 0.761904761905, 2.47619047619, 0.952380952381
3279, 0.666666666667, 2.16666666667, 1.33333333333
3280, 0.942809041582, 2.45130350811, 0.983011066937
3281, 0.824957911384, 2.1448905696, 1.36013468357
3282, 1.1177914388, 2.42188145073, 1.01922282987
3283, 0.978067508949, 2.11914626939, 1.39181997614
3284, 1.28608259409, 2.38843910331, 1.06038264208
3285, 1.12532226983, 2.08988421539, 1.42783481182
3286, 1.44709002127, 2.35152128456, 1.10581995746
3287, 1.26620376861, 2.05758112399, 1.46759246278
3288, 1.60039520811, 2.31168196727, 1.15485296336
3289, 1.40034580709, 2.02272172136, 1.51049634294
3290, 1.74574312189, 2.26946605845, 1.20681100498
3291, 1.52752523165, 1.98578280115, 1.55595962936
3292, 1.88302616705, 2.22539456106, 1.26105284793
3293, 1.64764789617, 1.94722024092, 1.60342124194
3294, 2.01226467912, 2.17995340238, 1.31698042784
3295, 1.76073159423, 1.90745922708, 1.65235787436
3296, 2.13358584364, 2.13358584364, 1.37404819244
3297, 1.86688761319, 1.86688761319, 1.70229216839
3298, 2.24720259093, 2.08668812015, 1.4317684675
3299, 1.96630226707, 1.82585210513, 1.75279740907
3300, 2.35339362166, 2.03960780544, 1.48971347023
3301, 2.05921941895, 1.78465682976, 1.80349928645
3302, 2.45248532877, 1.99264432962, 1.54751467123
3303, 2.14592466267, 1.74356378842, 1.85407533733
3304, -2.40526728961, 2.10460887841, 1.59473271039
3305, -2.10460887841, 1.84153276861, 1.89539112159
3306, -2.30598732607, 2.15225483767, 1.54028018552
3307, -2.01773891031, 1.88322298296, 1.84774516233
3308, -2.19988776369, 2.19988776369, 1.48584255578
3309, -1.92490179323, 1.92490179323, 1.80011223631
3310, -2.08668812015, 2.24720259093, 1.4317684675
3311, -1.82585210513, 1.96630226707, 1.75279740907
3312, -1.96615660925, 2.29384937745, 1.37845785434
3313, -1.72038703309, 2.00711820527, 1.70615062255
3314, -1.83812636984, 2.33943356161, 1.32636164388
3315, -1.60836057361, 2.04700436641, 1.66056643839
3316, -1.70251306152, 2.38351828612, 1.27597910157
3317, -1.48969892883, 2.08557850036, 1.61648171388
3318, -1.55933309457, 2.42562925822, 1.22785227633
3319, -1.36441645775, 2.12242560094, 1.57437074178
3320, -1.40872145012, 2.46526253771, 1.18255709976
3321, -1.23263126886, 2.1571047205, 1.53473746229
3322, -1.2509477445, 2.50189548901, 1.1406908697
3323, -1.09457927644, 2.18915855288, 1.49810451099
3324, -1.08642895251, 2.53500088919, 1.10285612664
3325, -0.950625333446, 2.21812577804, 1.46499911081
3326, -0.915737092991, 2.56406386038, 1.06964130243
3327, -0.801269956367, 2.24355587783, 1.43593613962
3328, -0.739600261634, 2.58860091572, 1.04159895347
3329, -0.647150228929, 2.26502580125, 1.41139908428
3330, -0.558895719399, 2.60818002386, 1.01922282987
3331, -0.489033754474, 2.28215752088, 1.39181997614
3332, -0.374634324633, 2.62244027243, 1.00292540294
3333, -0.327805034054, 2.29463523838, 1.37755972757
3334, -0.187936394294, 2.63110952012, 0.993017691296
3335, -0.164444345007, 2.3022208301, 1.36889047988
3336, 0, 2.63401843147, 0.989693221172
3337, 0, 2.30476612754, 1.36598156853
3338, 0.187936394294, 2.63110952012, 0.993017691296
3339, 0.164444345007, 2.3022208301, 1.36889047988
3340, 0.374634324633, 2.62244027243, 1.00292540294
3341, 0.327805034054, 2.29463523838, 1.37755972757
3342, 0.558895719399, 2.60818002386, 1.01922282987
3343, 0.489033754474, 2.28215752088, 1.39181997614
3344, 0.739600261634, 2.58860091572, 1.04159895347
3345, 0.647150228929, 2.26502580125, 1.41139908428
3346, 0.915737092991, 2.56406386038, 1.06964130243
3347, 0.801269956367, 2.24355587783, 1.43593613962
3348, 1.08642895251, 2.53500088919, 1.10285612664
3349, 0.950625333446, 2.21812577804, 1.46499911081
3350, 1.2509477445, 2.50189548901, 1.1406908697
3351, 1.09457927644, 2.18915855288, 1.49810451099
3352, 1.40872145012, 2.46526253771, 1.18255709976
3353, 1.23263126886, 2.1571047205, 1.53473746229
3354, 1.55933309457, 2.42562925822, 1.22785227633
3355, 1.36441645775, 2.12242560094, 1.57437074178
3356, 1.70251306152, 2.38351828612, 1.27597910157
3357, 1.48969892883, 2.08557850036, 1.61648171388
3358, 1.83812636984, 2.33943356161, 1.32636164388
3359, 1.60836057361, 2.04700436641, 1.66056643839
3360, 1.96615660925, 2.29384937745, 1.37845785434
3361, 1.72038703309, 2.00711820527, 1.70615062255
3362, 2.08668812015, 2.24720259093, 1.4317684675
3363, 1.82585210513, 1.96630226707, 1.75279740907
3364, 2.19988776369, 2.19988776369, 1.48584255578
3365, 1.92490179323, 1.92490179323, 1.80011223631
3366, 2.30598732607, 2.15225483767, 1.54028018552
3367, 2.01773891031, 1.88322298296, 1.84774516233
3368, 2.40526728961, 2.10460887841, 1.59473271039
3369, 2.10460887841, 1.84153276861, 1.89539112159
3370, -2.35747029979, 2.21012840605, 1.64252970021
3371, -2.06278651231, 1.93386235529, 1.93721348769
3372, -2.25812978848, 2.25812978848, 1.59132822562
3373, -1.97586356492, 1.97586356492, 1.89241219741
3374, -2.15225483767, 2.30598732607, 1.54028018552
3375, -1.88322298296, 2.01773891031, 1.84774516233
3376, -2.03960780544, 2.35339362166, 1.48971347023
3377, -1.78465682976, 2.05921941895, 1.80349928645
3378, -1.92, 2.4, 1.44
3379, -1.68, 2.1, 1.76
3380, -1.79330612107, 2.44541743782, 1.39155473299
3381, -1.56914285593, 2.13974025809, 1.71761039137
3382, -1.65947962729, 2.48921944094, 1.34483259634
3383, -1.45204467388, 2.17806701082, 1.67672852179
3384, -1.51856834619, 2.53094724366, 1.3003229401
3385, -1.32874730292, 2.2145788382, 1.63778257259
3386, -1.37072939801, 2.57011762127, 1.25854120398
3387, -1.19938822326, 2.24885291861, 1.60122355348
3388, -1.21624227974, 2.60623345658, 1.22001764632
3389, -1.06421199477, 2.28045427451, 1.56751544053
3390, -1.05551879312, 2.6387969828, 1.18528321835
3391, -0.92357894398, 2.30894735995, 1.53712281605
3392, -0.889108448949, 2.66732534685, 1.15485296336
3393, -0.77796989283, 2.33390967849, 1.51049634294
3394, -0.717698086426, 2.6913678241, 1.1292076543
3395, -0.627985825623, 2.35494684609, 1.48805669751
3396, -0.542104741743, 2.71052370872, 1.1087747107
3397, -0.474341649025, 2.37170824513, 1.47017787187
3398, -0.363261287349, 2.72445965512, 1.09390970121
3399, -0.317853626431, 2.38390219823, 1.45717098856
3400, -0.18219500747, 2.73292511205, 1.08487988048
3401, -0.159420631536, 2.39130947304, 1.44926989542
3402, 0, 2.73576451553, 1.08185118344
3403, 0, 2.39379395108, 1.44661978551
3404, 0.18219500747, 2.73292511205, 1.08487988048
3405, 0.159420631536, 2.39130947304, 1.44926989542
3406, 0.363261287349, 2.72445965512, 1.09390970121
3407, 0.317853626431, 2.38390219823, 1.45717098856
3408, 0.542104741743, 2.71052370872, 1.1087747107
3409, 0.474341649025, 2.37170824513, 1.47017787187
3410, 0.717698086426, 2.6913678241, 1.1292076543
3411, 0.627985825623, 2.35494684609, 1.48805669751
3412, 0.889108448949, 2.66732534685, 1.15485296336
3413, 0.77796989283, 2.33390967849, 1.51049634294
3414, 1.05551879312, 2.6387969828, 1.18528321835
3415, 0.92357894398, 2.30894735995, 1.53712281605
3416, 1.21624227974, 2.60623345658, 1.22001764632
3417, 1.06421199477, 2.28045427451, 1.56751544053
3418, 1.37072939801, 2.57011762127, 1.25854120398
3419, 1.19938822326, 2.24885291861, 1.60122355348
3420, 1.51856834619, 2.53094724366, 1.3003229401
3421, 1.32874730292, 2.2145788382, 1.63778257259
3422, 1.65947962729, 2.48921944094, 1.34483259634
3423, 1.45204467388, 2.17806701082, 1.67672852179
3424, 1.79330612107, 2.44541743782, 1.39155473299
3425, 1.56914285593, 2.13974025809, 1.71761039137
3426, 1.92, 2.4, 1.44
3427, 1.68, 2.1, 1.76
3428, 2.03960780544, 2.35339362166, 1.48971347023
3429, 1.78465682976, 2.05921941895, 1.80349928645
3430, 2.15225483767, 2.30598732607, 1.54028018552
3431, 1.88322298296, 2.01773891031, 1.84774516233
3432, 2.25812978848, 2.25812978848, 1.59132822562
3433, 1.97586356492, 1.97586356492, 1.89241219741
3434, 2.35747029979, 2.21012840605, 1.64252970021
3435, 2.06278651231, 1.93386235529, 1.93721348769
3436, -2.30940107676, 2.30940107676, 1.69059892324
3437, -2.02072594216, 2.02072594216, 1.97927405784
3438, -2.21012840605, 2.35747029979, 1.64252970021
3439, -1.93386235529, 2.06278651231, 1.93721348769
3440, -2.10460887841, 2.40526728961, 1.59473271039
3441, -1.84153276861, 2.10460887841, 1.89539112159
3442, -1.99264432962, 2.45248532877, 1.54751467123
3443, -1.74356378842, 2.14592466267, 1.85407533733
3444, -1.87408514266, 2.49878019022, 1.50121980978
3445, -1.63982449983, 2.18643266644, 1.81356733356
3446, -1.74884299374, 2.54377162725, 1.45622837275
3447, -1.53023761952, 2.22580017385, 1.77419982615
3448, -1.61690416691, 2.58704666705, 1.41295333295
3449, -1.41479114605, 2.26366583367, 1.73633416633
3450, -1.47834281224, 2.62816499953, 1.37183500047
3451, -1.29354996071, 2.29964437459, 1.70035562541
3452, -1.33333333333, 2.66666666667, 1.33333333333
3453, -1.16666666667, 2.33333333333, 1.66666666667
3454, -1.18216092658, 2.70208211789, 1.29791788211
3455, -1.03439081076, 2.36432185316, 1.63567814684
3456, -1.02522918926, 2.73394450469, 1.26605549531
3457, -0.897075540603, 2.39220144161, 1.60779855839
3458, -0.863063704004, 2.76180385281, 1.23819614719
3459, -0.755180741004, 2.41657837121, 1.58342162879
3460, -0.696310623823, 2.78524249529, 1.21475750471
3461, -0.609271795845, 2.43708718338, 1.56291281662
3462, -0.525729545206, 2.80389090777, 1.19610909223
3463, -0.460013352055, 2.45340454429, 1.54659545571
3464, -0.35218036253, 2.81744290024, 1.18255709976
3465, -0.308157817214, 2.46526253771, 1.53473746229
3466, -0.176604314275, 2.82566902841, 1.17433097159
3467, -0.154528774991, 2.47246039985, 1.52753960015
3468, 0, 2.82842712475, 1.17157287525
3469, 0, 2.47487373415, 1.52512626585
3470, 0.176604314275, 2.82566902841, 1.17433097159
3471, 0.154528774991, 2.47246039985, 1.52753960015
3472, 0.35218036253, 2.81744290024, 1.18255709976
3473, 0.308157817214, 2.46526253771, 1.53473746229
3474, 0.525729545206, 2.80389090777, 1.19610909223
3475, 0.460013352055, 2.45340454429, 1.54659545571
3476, 0.696310623823, 2.78524249529, 1.21475750471
3477, 0.609271795845, 2.43708718338, 1.56291281662
3478, 0.863063704004, 2.76180385281, 1.23819614719
3479, 0.755180741004, 2.41657837121, 1.58342162879
3480, 1.02522918926, 2.73394450469, 1.26605549531
3481, 0.897075540603, 2.39220144161, 1.60779855839
3482, 1.18216092658, 2.70208211789, 1.29791788211
3483, 1.03439081076, 2.36432185316, 1.63567814684
3484, 1.33333333333, 2.66666666667, 1.33333333333
3485, 1.16666666667, 2.33333333333, 1.66666666667
3486, 1.47834281224, 2.62816499953, 1.37183500047
3487, 1.29354996071, 2.29964437459, 1.70035562541
3488, 1.61690416691, 2.58704666705, 1.41295333295
3489, 1.41479114605, 2.26366583367, 1.73633416633
3490, 1.74884299374, 2.54377162725, 1.45622837275
3491, 1.53023761952, 2.22580017385, 1.77419982615
3492, 1.87408514266, 2.49878019022, 1.50121980978
3493, 1.63982449983, 2.18643266644, 1.81356733356
3494, 1.99264432962, 2.45248532877, 1.54751467123
3495, 1.74356378842, 2.14592466267, 1.85407533733
3496, 2.10460887841, 2.40526728961, 1.59473271039
3497, 1.84153276861, 2.10460887841, 1.89539112159
3498, 2.21012840605, 2.35747029979, 1.64252970021
3499, 1.93386235529, 2.06278651231, 1.93721348769
3500, 2.30940107676, 2.30940107676, 1.69059892324
3501, 2.02072594216, 2.02072594216, 1.97927405784
3502, -2.35747029979, -2.35747029979, 1.78987159395
3503, -2.06278651231, -2.06278651231, 2.06613764471
3504, -2.40867177438, -2.25812978848, 1.74187021152
3505, -2.10758780259, -1.97586356492, 2.02413643508
3506, -2.45971981448, -2.15225483767, 1.69401267393
3507, -2.15225483767, -1.88322298296, 1.98226108969
3508, -2.51028652977, -2.03960780544, 1.64660637834
3509, -2.19650071355, -1.78465682976, 1.94078058105
3510, -2.56, -1.92, 1.6
3511, -2.24, -1.68, 1.9
3512, -2.60844526701, -1.79330612107, 1.55458256218
3513, -2.28238960863, -1.56914285593, 1.86025974191
3514, -2.65516740366, -1.65947962729, 1.51078055906
3515, -2.32327147821, -1.45204467388, 1.82193298918
3516, -2.6996770599, -1.51856834619, 1.46905275634
3517, -2.36221742741, -1.32874730292, 1.7854211618
3518, -2.74145879602, -1.37072939801, 1.42988237873
3519, -2.39877644652, -1.19938822326, 1.75114708139
3520, -2.77998235368, -1.21624227974, 1.39376654342
3521, -2.43248455947, -1.06421199477, 1.71954572549
3522, -2.81471678165, -1.05551879312, 1.3612030172
3523, -2.46287718395, -0.92357894398, 1.69105264005
3524, -2.84514703664, -0.889108448949, 1.33267465315
3525, -2.48950365706, -0.77796989283, 1.66609032151
3526, -2.8707923457, -0.717698086426, 1.3086321759
3527, -2.51194330249, -0.627985825623, 1.64505315391
3528, -2.8912252893, -0.542104741743, 1.28947629128
3529, -2.52982212813, -0.474341649025, 1.62829175487
3530, -2.90609029879, -0.363261287349, 1.27554034488
3531, -2.54282901144, -0.317853626431, 1.61609780177
3532, -2.91512011952, -0.18219500747, 1.26707488795
3533, -2.55073010458, -0.159420631536, 1.60869052696
3534, -2.91814881656, 0, 1.26423548447
3535, -2.55338021449, 0, 1.60620604892
3536, -2.91512011952, 0.18219500747, 1.26707488795
3537, -2.55073010458, 0.159420631536, 1.60869052696
3538, -2.90609029879, 0.363261287349, 1.27554034488
3539, -2.54282901144, 0.317853626431, 1.61609780177
3540, -2.8912252893, 0.542104741743, 1.28947629128
3541, -2.52982212813, 0.474341649025, 1.62829175487
3542, -2.8707923457, 0.717698086426, 1.3086321759
3543, -2.51194330249, 0.627985825623, 1.64505315391
3544, -2.84514703664, 0.889108448949, 1.33267465315
3545, -2.48950365706, 0.77796989283, 1.66609032151
3546, -2.81471678165, 1.05551879312, 1.3612030172
3547, -2.46287718395, 0.92357894398, 1.69105264005
3548, -2.77998235368, 1.21624227974, 1.39376654342
3549, -2.43248455947, 1.06421199477, 1.71954572549
3550, -2.74145879602, 1.37072939801, 1.42988237873
3551, -2.39877644652, 1.19938822326, 1.75114708139
3552, -2.6996770599, 1.51856834619, 1.46905275634
3553, -2.36221742741, 1.32874730292, 1.7854211618
3554, -2.65516740366, 1.65947962729, 1.51078055906
3555, -2.32327147821, 1.45204467388, 1.82193298918
3556, -2.60844526701, 1.79330612107, 1.55458256218
3557, -2.28238960863, 1.56914285593, 1.86025974191
3558, -2.56, 1.92, 1.6
3559, -2.24, 1.68, 1.9
3560, -2.51028652977, 2.03960780544, 1.64660637834
3561, -2.19650071355, 1.78465682976, 1.94078058105
3562, -2.45971981448, 2.15225483767, 1.69401267393
3563, -2.15225483767, 1.88322298296, 1.98226108969
3564, -2.40867177438, 2.25812978848, 1.74187021152
3565, -2.10758780259, 1.97586356492, 2.02413643508
3566, -2.35747029979, 2.35747029979, 1.78987159395
3567, -2.06278651231, 2.06278651231, 2.06613764471
3568, -2.40526728961, -2.40526728961, 1.89539112159
3569, -2.10460887841, -2.10460887841, 2.15846723139
3570, -2.45971981448, -2.30598732607, 1.84774516233
3571, -2.15225483767, -2.01773891031, 2.11677701704
3572, -2.51415744422, -2.19988776369, 1.80011223631
3573, -2.19988776369, -1.92490179323, 2.07509820677
3574, -2.5682315325, -2.08668812015, 1.75279740907
3575, -2.24720259093, -1.82585210513, 2.03369773293
3576, -2.62154214566, -1.96615660925, 1.70615062255
3577, -2.29384937745, -1.72038703309, 1.99288179473
3578, -2.67363835612, -1.83812636984, 1.66056643839
3579, -2.33943356161, -1.60836057361, 1.95299563359
3580, -2.72402089843, -1.70251306152, 1.61648171388
3581, -2.38351828612, -1.48969892883, 1.91442149964
3582, -2.77214772367, -1.55933309457, 1.57437074178
3583, -2.42562925822, -1.36441645775, 1.87757439906
3584, -2.81744290024, -1.40872145012, 1.53473746229
3585, -2.46526253771, -1.23263126886, 1.8428952795
3586, -2.8593091303, -1.2509477445, 1.49810451099
3587, -2.50189548901, -1.09457927644, 1.81084144712
3588, -2.89714387336, -1.08642895251, 1.46499911081
3589, -2.53500088919, -0.950625333446, 1.78187422196
3590, -2.93035869757, -0.915737092991, 1.43593613962
3591, -2.56406386038, -0.801269956367, 1.75644412217
3592, -2.95840104653, -0.739600261634, 1.41139908428
3593, -2.58860091572, -0.647150228929, 1.73497419875
3594, -2.98077717013, -0.558895719399, 1.39181997614
3595, -2.60818002386, -0.489033754474, 1.71784247912
3596, -2.99707459706, -0.374634324633, 1.37755972757
3597, -2.62244027243, -0.327805034054, 1.70536476162
3598, -3.0069823087, -0.187936394294, 1.36889047988
3599, -2.63110952012, -0.164444345007, 1.6977791699
3600, -3.01030677883, 0, 1.36598156853
3601, -2.63401843147, 0, 1.69523387246
3602, -3.0069823087, 0.187936394294, 1.36889047988
3603, -2.63110952012, 0.164444345007, 1.6977791699
3604, -2.99707459706, 0.374634324633, 1.37755972757
3605, -2.62244027243, 0.327805034054, 1.70536476162
3606, -2.98077717013, 0.558895719399, 1.39181997614
3607, -2.60818002386, 0.489033754474, 1.71784247912
3608, -2.95840104653, 0.739600261634, 1.41139908428
3609, -2.58860091572, 0.647150228929, 1.73497419875
3610, -2.93035869757, 0.915737092991, 1.43593613962
3611, -2.56406386038, 0.801269956367, 1.75644412217
3612, -2.89714387336, 1.08642895251, 1.46499911081
3613, -2.53500088919, 0.950625333446, 1.78187422196
3614, -2.8593091303, 1.2509477445, 1.49810451099
3615, -2.50189548901, 1.09457927644, 1.81084144712
3616, -2.81744290024, 1.40872145012, 1.53473746229
3617, -2.46526253771, 1.23263126886, 1.8428952795
3618, -2.77214772367, 1.55933309457, 1.57437074178
3619, -2.42562925822, 1.36441645775, 1.87757439906
3620, -2.72402089843, 1.70251306152, 1.61648171388
3621, -2.38351828612, 1.48969892883, 1.91442149964
3622, -2.67363835612, 1.83812636984, 1.66056643839
3623, -2.33943356161, 1.60836057361, 1.95299563359
3624, -2.62154214566, 1.96615660925, 1.70615062255
3625, -2.29384937745, 1.72038703309, 1.99288179473
3626, -2.5682315325, 2.08668812015, 1.75279740907
3627, -2.24720259093, 1.82585210513, 2.03369773293
3628, -2.51415744422, 2.19988776369, 1.80011223631
3629, -2.19988776369, 1.92490179323, 2.07509820677
3630, -2.45971981448, 2.30598732607, 1.84774516233
3631, -2.15225483767, 2.01773891031, 2.11677701704
3632, -2.40526728961, 2.40526728961, 1.89539112159
3633, -2.10460887841, 2.10460887841, 2.15846723139
3634, -2.45248532877, -2.45248532877, 2.00735567038
3635, -2.14592466267, -2.14592466267, 2.25643621158
3636, -2.51028652977, -2.35339362166, 1.96039219456
3637, -2.19650071355, -2.05921941895, 2.21534317024
3638, -2.5682315325, -2.24720259093, 1.91331187985
3639, -2.24720259093, -1.96630226707, 2.17414789487
3640, -2.62595180756, -2.13358584364, 1.86641415636
3641, -2.29770783161, -1.86688761319, 2.13311238681
3642, -2.68301957216, -2.01226467912, 1.82004659762
3643, -2.34764212564, -1.76073159423, 2.09254077292
3644, -2.73894715207, -1.88302616705, 1.77460543894
3645, -2.39657875806, -1.64764789617, 2.05277975908
3646, -2.79318899502, -1.74574312189, 1.73053394155
3647, -2.44404037064, -1.52752523165, 2.01421719885
3648, -2.84514703664, -1.60039520811, 1.68831803273
3649, -2.48950365706, -1.40034580709, 1.97727827864
3650, -2.89418004254, -1.44709002127, 1.64847871544
3651, -2.53240753722, -1.26620376861, 1.94241887601
3652, -2.93961735792, -1.28608259409, 1.61156089669
3653, -2.57216518818, -1.12532226983, 1.91011578461
3654, -2.98077717013, -1.1177914388, 1.57811854927
3655, -2.60818002386, -0.978067508949, 1.88085373061
3656, -3.01698893306, -0.942809041582, 1.54869649189
3657, -2.63986531643, -0.824957911384, 1.8551094304
3658, -3.04761904762, -0.761904761905, 1.52380952381
3659, -2.66666666667, -0.666666666667, 1.83333333333
3660, -3.07209830872, -0.576018432885, 1.50392012417
3661, -2.68808602013, -0.504016128774, 1.81593010865
3662, -3.08994911735, -0.386243639668, 1.48941634216
3663, -2.70370547768, -0.33796318471, 1.80323929939
3664, -3.10081013191, -0.193800633245, 1.48059176782
3665, -2.71320886542, -0.169575554089, 1.79551779684
3666, -3.10445600047, 0, 1.47762949962
3667, -2.71639900041, 0, 1.79292581217
3668, -3.10081013191, 0.193800633245, 1.48059176782
3669, -2.71320886542, 0.169575554089, 1.79551779684
3670, -3.08994911735, 0.386243639668, 1.48941634216
3671, -2.70370547768, 0.33796318471, 1.80323929939
3672, -3.07209830872, 0.576018432885, 1.50392012417
3673, -2.68808602013, 0.504016128774, 1.81593010865
3674, -3.04761904762, 0.761904761905, 1.52380952381
3675, -2.66666666667, 0.666666666667, 1.83333333333
3676, -3.01698893306, 0.942809041582, 1.54869649189
3677, -2.63986531643, 0.824957911384, 1.8551094304
3678, -2.98077717013, 1.1177914388, 1.57811854927
3679, -2.60818002386, 0.978067508949, 1.88085373061
3680, -2.93961735792, 1.28608259409, 1.61156089669
3681, -2.57216518818, 1.12532226983, 1.91011578461
3682, -2.89418004254, 1.44709002127, 1.64847871544
3683, -2.53240753722, 1.26620376861, 1.94241887601
3684, -2.84514703664, 1.60039520811, 1.68831803273
3685, -2.48950365706, 1.40034580709, 1.97727827864
3686, -2.79318899502, 1.74574312189, 1.73053394155
3687, -2.44404037064, 1.52752523165, 2.01421719885
3688, -2.73894715207, 1.88302616705, 1.77460543894
3689, -2.39657875806, 1.64764789617, 2.05277975908
3690, -2.68301957216, 2.01226467912, 1.82004659762
3691, -2.34764212564, 1.76073159423, 2.09254077292
3692, -2.62595180756, 2.13358584364, 1.86641415636
3693, -2.29770783161, 1.86688761319, 2.13311238681
3694, -2.5682315325, 2.24720259093, 1.91331187985
3695, -2.24720259093, 1.96630226707, 2.17414789487
3696, -2.51028652977, 2.35339362166, 1.96039219456
3697, -2.19650071355, 2.05921941895, 2.21534317024
3698, -2.45248532877, 2.45248532877, 2.00735567038
3699, -2.14592466267, 2.14592466267, 2.25643621158
3700, -2.49878019022, -2.49878019022, 2.12591485734
3701, -2.18643266644, -2.18643266644, 2.36017550017
3702, -2.56, -2.4, 2.08
3703, -2.24, -2.1, 2.32
3704, -2.62154214566, -2.29384937745, 2.03384339075
3705, -2.29384937745, -2.00711820527, 2.27961296691
3706, -2.68301957216, -2.17995340238, 1.98773532088
3707, -2.34764212564, -1.90745922708, 2.23926840577
3708, -2.74397736228, -2.05798302171, 1.94201697829
3709, -2.400980192, -1.800735144, 2.199264856
3710, -2.80389090777, -1.92767499909, 1.89708181918
3711, -2.45340454429, -1.6867156242, 2.15994659178
3712, -2.8621670112, -1.788854382, 1.8533747416
3713, -2.5043961348, -1.56524758425, 2.1217028989
3714, -2.91814881656, -1.64145870932, 1.81138838758
3715, -2.55338021449, -1.43627637065, 2.08496483913
3716, -2.97112541083, -1.48556270542, 1.77165594188
3717, -2.59973473448, -1.29986736724, 2.05019894914
3718, -3.02034674037, -1.32140169891, 1.73473994472
3719, -2.64280339782, -1.15622648655, 2.01789745163
3720, -3.06504411271, -1.14939154227, 1.70121691547
3721, -2.68191359862, -1.00571759948, 1.98856480104
3722, -3.10445600047, -0.970142500145, 1.67165799965
3723, -2.71639900041, -0.848874687627, 1.96270074969
3724, -3.13785816221, -0.784464540553, 1.64660637834
3725, -2.74562589193, -0.686406472984, 1.94078058105
3726, -3.16459632918, -0.593361811721, 1.62655275312
3727, -2.76902178803, -0.519191585256, 1.92323365898
3728, -3.18411900867, -0.398014876084, 1.6119107435
3729, -2.78610413259, -0.348263016573, 1.91042190056
3730, -3.19600748441, -0.199750467776, 1.60299438669
3731, -2.79650654886, -0.174781659304, 1.90262008836
3732, -3.2, 0, 1.6
3733, -2.8, 0, 1.9
3734, -3.19600748441, 0.199750467776, 1.60299438669
3735, -2.79650654886, 0.174781659304, 1.90262008836
3736, -3.18411900867, 0.398014876084, 1.6119107435
3737, -2.78610413259, 0.348263016573, 1.91042190056
3738, -3.16459632918, 0.593361811721, 1.62655275312
3739, -2.76902178803, 0.519191585256, 1.92323365898
3740, -3.13785816221, 0.784464540553, 1.64660637834
3741, -2.74562589193, 0.686406472984, 1.94078058105
3742, -3.10445600047, 0.970142500145, 1.67165799965
3743, -2.71639900041, 0.848874687627, 1.96270074969
3744, -3.06504411271, 1.14939154227, 1.70121691547
3745, -2.68191359862, 1.00571759948, 1.98856480104
3746, -3.02034674037, 1.32140169891, 1.73473994472
3747, -2.64280339782, 1.15622648655, 2.01789745163
3748, -2.97112541083, 1.48556270542, 1.77165594188
3749, -2.59973473448, 1.29986736724, 2.05019894914
3750, -2.91814881656, 1.64145870932, 1.81138838758
3751, -2.55338021449, 1.43627637065, 2.08496483913
3752, -2.8621670112, 1.788854382, 1.8533747416
3753, -2.5043961348, 1.56524758425, 2.1217028989
3754, -2.80389090777, 1.92767499909, 1.89708181918
3755, -2.45340454429, 1.6867156242, 2.15994659178
3756, -2.74397736228, 2.05798302171, 1.94201697829
3757, -2.400980192, 1.800735144, 2.199264856
3758, -2.68301957216, 2.17995340238, 1.98773532088
3759, -2.34764212564, 1.90745922708, 2.23926840577
3760, -2.62154214566, 2.29384937745, 2.03384339075
3761, -2.29384937745, 2.00711820527, 2.27961296691
3762, -2.56, 2.4, 2.08
3763, -2.24, 2.1, 2.32
3764, -2.49878019022, 2.49878019022, 2.12591485734
3765, -2.18643266644, 2.18643266644, 2.36017550017
3766, -2.54377162725, -2.54377162725, 2.25115700626
3767, -2.22580017385, -2.22580017385, 2.46976238048
3768, -2.60844526701, -2.44541743782, 2.20669387893
3769, -2.28238960863, -2.13974025809, 2.43085714407
3770, -2.67363835612, -2.33943356161, 2.16187363016
3771, -2.33943356161, -2.04700436641, 2.39163942639
3772, -2.73894715207, -2.22539456106, 2.11697383295
3773, -2.39657875806, -1.94722024092, 2.35235210383
3774, -2.80389090777, -2.10291818082, 2.07232500091
3775, -2.45340454429, -1.84005340822, 2.3132843758
3776, -2.86790857567, -1.97168714577, 2.02831285423
3777, -2.50942000371, -1.72522625255, 2.27477374745
3778, -2.93035869757, -1.83147418598, 1.98537839542
3779, -2.56406386038, -1.60253991273, 2.23720609599
3780, -2.9905236065, -1.68216952866, 1.94401502053
3781, -2.61670815569, -1.47189833758, 2.20101314296
3782, -3.04761904762, -1.52380952381, 1.90476190476
3783, -2.66666666667, -1.33333333333, 2.16666666667
3784, -3.10081013191, -1.35660443271, 1.86819303431
3785, -2.71320886542, -1.18702887862, 2.13466890502
3786, -3.14923412035, -1.18096279513, 1.83490154226
3787, -2.75557985531, -1.03334244574, 2.10553884948
3788, -3.19202987554, -0.997509336108, 1.80547946056
3789, -2.7930261411, -0.872820669094, 2.07979452799
3790, -3.22837294275, -0.807093235689, 1.78049360186
3791, -2.82482632491, -0.706206581227, 2.05793190162
3792, -3.25751423078, -0.610783918271, 1.76045896634
3793, -2.85032495193, -0.534435928487, 2.04040159555
3794, -3.2788193253, -0.409852415663, 1.74581171385
3795, -2.86896690964, -0.358620863705, 2.02758524962
3796, -3.29180479919, -0.205737799949, 1.73688420056
3797, -2.88032919929, -0.180020574956, 2.01977367549
3798, -3.2961676968, 0, 1.73388470845
3799, -2.8841467347, 0, 2.0171491199
3800, -3.29180479919, 0.205737799949, 1.73688420056
3801, -2.88032919929, 0.180020574956, 2.01977367549
3802, -3.2788193253, 0.409852415663, 1.74581171385
3803, -2.86896690964, 0.358620863705, 2.02758524962
3804, -3.25751423078, 0.610783918271, 1.76045896634
3805, -2.85032495193, 0.534435928487, 2.04040159555
3806, -3.22837294275, 0.807093235689, 1.78049360186
3807, -2.82482632491, 0.706206581227, 2.05793190162
3808, -3.19202987554, 0.997509336108, 1.80547946056
3809, -2.7930261411, 0.872820669094, 2.07979452799
3810, -3.14923412035, 1.18096279513, 1.83490154226
3811, -2.75557985531, 1.03334244574, 2.10553884948
3812, -3.10081013191, 1.35660443271, 1.86819303431
3813, -2.71320886542, 1.18702887862, 2.13466890502
3814, -3.04761904762, 1.52380952381, 1.90476190476
3815, -2.66666666667, 1.33333333333, 2.16666666667
3816, -2.9905236065, 1.68216952866, 1.94401502053
3817, -2.61670815569, 1.47189833758, 2.20101314296
3818, -2.93035869757, 1.83147418598, 1.98537839542
3819, -2.56406386038, 1.60253991273, 2.23720609599
3820, -2.86790857567, 1.97168714577, 2.02831285423
3821, -2.50942000371, 1.72522625255, 2.27477374745
3822, -2.80389090777, 2.10291818082, 2.07232500091
3823, -2.45340454429, 1.84005340822, 2.3132843758
3824, -2.73894715207, 2.22539456106, 2.11697383295
3825, -2.39657875806, 1.94722024092, 2.35235210383
3826, -2.67363835612, 2.33943356161, 2.16187363016
3827, -2.33943356161, 2.04700436641, 2.39163942639
3828, -2.60844526701, 2.44541743782, 2.20669387893
3829, -2.28238960863, 2.13974025809, 2.43085714407
3830, -2.54377162725, 2.54377162725, 2.25115700626
3831, -2.22580017385, 2.22580017385, 2.46976238048
3832, -2.58704666705, -2.58704666705, 2.38309583309
3833, -2.26366583367, -2.26366583367, 2.58520885395
3834, -2.65516740366, -2.48921944094, 2.34052037271
3835, -2.32327147821, -2.17806701082, 2.54795532612
3836, -2.72402089843, -2.38351828612, 2.29748693848
3837, -2.38351828612, -2.08557850036, 2.51030107117
3838, -2.79318899502, -2.26946605845, 2.25425687811
3839, -2.44404037064, -1.98578280115, 2.47247476835
3840, -2.8621670112, -2.1466252584, 2.211145618
3841, -2.5043961348, -1.8782971011, 2.43475241575
3842, -2.93035869757, -2.01462160458, 2.16852581402
3843, -2.56406386038, -1.76279390401, 2.39746008727
3844, -2.99707459706, -1.87317162316, 2.12682837684
3845, -2.62244027243, -1.63902517027, 2.36097482973
3846, -3.0615351887, -1.72211354365, 2.08654050706
3847, -2.67884329012, -1.50684935069, 2.32572294368
3848, -3.12288023344, -1.56144011672, 2.0481998541
3849, -2.73252020426, -1.36626010213, 2.29217487234
3850, -3.180185568, -1.391331186, 2.01238402
3851, -2.782662372, -1.21741478775, 2.2608360175
3852, -3.23248814257, -1.21218305346, 1.9796949109
3853, -2.82842712475, -1.06066017178, 2.23223304703
3854, -3.2788193253, -1.02463103916, 1.95073792169
3855, -2.86896690964, -0.896552159262, 2.20689568148
3856, -3.31824542314, -0.829561355784, 1.92609661054
3857, -2.90346474525, -0.725866186311, 2.18533453422
3858, -3.34991310458, -0.628108707108, 1.90630430964
3859, -2.93117396651, -0.54959511872, 2.16801627093
3860, -3.37309617085, -0.421637021356, 1.89181489322
3861, -2.95145914949, -0.368932393686, 2.15533803157
3862, -3.38723919376, -0.21170244961, 1.8829755039
3863, -2.96383429454, -0.185239643409, 2.14760356591
3864, -3.39199321602, 0, 1.88000423999
3865, -2.96799406402, 0, 2.14500370999
3866, -3.38723919376, 0.21170244961, 1.8829755039
3867, -2.96383429454, 0.185239643409, 2.14760356591
3868, -3.37309617085, 0.421637021356, 1.89181489322
3869, -2.95145914949, 0.368932393686, 2.15533803157
3870, -3.34991310458, 0.628108707108, 1.90630430964
3871, -2.93117396651, 0.54959511872, 2.16801627093
3872, -3.31824542314, 0.829561355784, 1.92609661054
3873, -2.90346474525, 0.725866186311, 2.18533453422
3874, -3.2788193253, 1.02463103916, 1.95073792169
3875, -2.86896690964, 0.896552159262, 2.20689568148
3876, -3.23248814257, 1.21218305346, 1.9796949109
3877, -2.82842712475, 1.06066017178, 2.23223304703
3878, -3.180185568, 1.391331186, 2.01238402
3879, -2.782662372, 1.21741478775, 2.2608360175
3880, -3.12288023344, 1.56144011672, 2.0481998541
3881, -2.73252020426, 1.36626010213, 2.29217487234
3882, -3.0615351887, 1.72211354365, 2.08654050706
3883, -2.67884329012, 1.50684935069, 2.32572294368
3884, -2.99707459706, 1.87317162316, 2.12682837684
3885, -2.62244027243, 1.63902517027, 2.36097482973
3886, -2.93035869757, 2.01462160458, 2.16852581402
3887, -2.56406386038, 1.76279390401, 2.39746008727
3888, -2.8621670112, 2.1466252584, 2.211145618
3889, -2.5043961348, 1.8782971011, 2.43475241575
3890, -2.79318899502, 2.26946605845, 2.25425687811
3891, -2.44404037064, 1.98578280115, 2.47247476835
3892, -2.72402089843, 2.38351828612, 2.29748693848
3893, -2.38351828612, 2.08557850036, 2.51030107117
3894, -2.65516740366, 2.48921944094, 2.34052037271
3895, -2.32327147821, 2.17806701082, 2.54795532612
3896, -2.58704666705, 2.58704666705, 2.38309583309
3897, -2.26366583367, 2.26366583367, 2.58520885395
3898, -2.62816499953, -2.62816499953, 2.52165718776
3899, -2.29964437459, -2.29964437459, 2.70645003929
3900, -2.6996770599, -2.53094724366, 2.48143165381
3901, -2.36221742741, -2.2145788382, 2.67125269708
3902, -2.77214772367, -2.42562925822, 2.44066690543
3903, -2.42562925822, -2.12242560094, 2.63558354225
3904, -2.84514703664, -2.31168196727, 2.39960479189
3905, -2.48950365706, -2.02272172136, 2.59965419291
3906, -2.91814881656, -2.18861161242, 2.35854129068
3907, -2.55338021449, -1.91503516087, 2.56372362935
3908, -2.9905236065, -2.05598497947, 2.31783047134
3909, -2.61670815569, -1.79898685704, 2.52810166242
3910, -3.0615351887, -1.91345949294, 2.27788645635
3911, -2.67884329012, -1.67427705632, 2.49315064931
3912, -3.13034232348, -1.76081755696, 2.23918244304
3913, -2.73904953305, -1.54071536234, 2.45928463766
3914, -3.19600748441, -1.5980037422, 2.20224579002
3915, -2.79650654886, -1.39825327443, 2.42696506627
3916, -3.25751423078, -1.42516247597, 2.16764824519
3917, -2.85032495193, -1.24701716647, 2.39669221454
3918, -3.3137943877, -1.24267289539, 2.13599065692
3919, -2.89957008924, -1.08733878346, 2.3689918248
3920, -3.36376531986, -1.05117666246, 2.10788200758
3921, -2.94329465487, -0.919779579648, 2.34439675663
3922, -3.40637629064, -0.85159407266, 2.08391333652
3923, -2.98057925431, -0.745144813577, 2.32342416945
3924, -3.44066131565, -0.645123996685, 2.06462800995
3925, -3.01057865119, -0.564483497099, 2.3065495087
3926, -3.46579431087, -0.433224288859, 2.05049070013
3927, -3.03257002201, -0.379071252752, 2.29417936262
3928, -3.48114107661, -0.217571317288, 2.04185814441
3929, -3.04599844203, -0.190374902627, 2.28662587636
3930, -3.4863021485, 0, 2.03895504147
3931, -3.05051437994, 0, 2.28408566129
3932, -3.48114107661, 0.217571317288, 2.04185814441
3933, -3.04599844203, 0.190374902627, 2.28662587636
3934, -3.46579431087, 0.433224288859, 2.05049070013
3935, -3.03257002201, 0.379071252752, 2.29417936262
3936, -3.44066131565, 0.645123996685, 2.06462800995
3937, -3.01057865119, 0.564483497099, 2.3065495087
3938, -3.40637629064, 0.85159407266, 2.08391333652
3939, -2.98057925431, 0.745144813577, 2.32342416945
3940, -3.36376531986, 1.05117666246, 2.10788200758
3941, -2.94329465487, 0.919779579648, 2.34439675663
3942, -3.3137943877, 1.24267289539, 2.13599065692
3943, -2.89957008924, 1.08733878346, 2.3689918248
3944, -3.25751423078, 1.42516247597, 2.16764824519
3945, -2.85032495193, 1.24701716647, 2.39669221454
3946, -3.19600748441, 1.5980037422, 2.20224579002
3947, -2.79650654886, 1.39825327443, 2.42696506627
3948, -3.13034232348, 1.76081755696, 2.23918244304
3949, -2.73904953305, 1.54071536234, 2.45928463766
3950, -3.0615351887, 1.91345949294, 2.27788645635
3951, -2.67884329012, 1.67427705632, 2.49315064931
3952, -2.9905236065, 2.05598497947, 2.31783047134
3953, -2.61670815569, 1.79898685704, 2.52810166242
3954, -2.91814881656, 2.18861161242, 2.35854129068
3955, -2.55338021449, 1.91503516087, 2.56372362935
3956, -2.84514703664, 2.31168196727, 2.39960479189
3957, -2.48950365706, 2.02272172136, 2.59965419291
3958, -2.77214772367, 2.42562925822, 2.44066690543
3959, -2.42562925822, 2.12242560094, 2.63558354225
3960, -2.6996770599, 2.53094724366, 2.48143165381
3961, -2.36221742741, 2.2145788382, 2.67125269708
3962, -2.62816499953, 2.62816499953, 2.52165718776
3963, -2.29964437459, 2.29964437459, 2.70645003929
3964, -2.66666666667, -2.66666666667, 2.66666666667
3965, -2.33333333333, -2.33333333333, 2.83333333333
3966, -2.74145879602, -2.57011762127, 2.62927060199
3967, -2.39877644652, -2.24885291861, 2.80061177674
3968, -2.81744290024, -2.46526253771, 2.59127854988
3969, -2.46526253771, -2.1571047205, 2.76736873114
3970, -2.89418004254, -2.35152128456, 2.55290997873
3971, -2.53240753722, -2.05758112399, 2.73379623139
3972, -2.97112541083, -2.22834405812, 2.51443729458
3973, -2.59973473448, -1.94980105086, 2.70013263276
3974, -3.04761904762, -2.09523809524, 2.47619047619
3975, -2.66666666667, -1.83333333333, 2.66666666667
3976, -3.12288023344, -1.9518001459, 2.43855988328
3977, -2.73252020426, -1.70782512766, 2.63373989787
3978, -3.19600748441, -1.79775420998, 2.4019962578
3979, -2.79650654886, -1.57303493373, 2.60174672557
3980, -3.26598632371, -1.63299316186, 2.36700683814
3981, -2.85773803325, -1.42886901662, 2.57113098338
3982, -3.33170692029, -1.45762177763, 2.33414653985
3983, -2.91524355525, -1.27541905542, 2.54237822237
3984, -3.39199321602, -1.27199745601, 2.30400339199
3985, -2.96799406402, -1.11299777401, 2.51600296799
3986, -3.44564417317, -1.07676380412, 2.27717791341
3987, -3.01493865153, -0.942168328602, 2.49253067424
3988, -3.49148624378, -0.872871560944, 2.25425687811
3989, -3.0550504633, -0.763762615826, 2.47247476835
3990, -3.52843421709, -0.661581415704, 2.23578289146
3991, -3.08737993995, -0.578883738741, 2.45631003002
3992, -3.55555555556, -0.444444444444, 2.22222222222
3993, -3.11111111111, -0.388888888889, 2.44444444444
3994, -3.57213166199, -0.223258228874, 2.213934169
3995, -3.12561520424, -0.195350950265, 2.43719239788
3996, -3.577708764, 0, 2.211145618
3997, -3.1304951685, 0, 2.43475241575
3998, -3.57213166199, 0.223258228874, 2.213934169
3999, -3.12561520424, 0.195350950265, 2.43719239788
4000, -3.55555555556, 0.444444444444, 2.22222222222
4001, -3.11111111111, 0.388888888889, 2.44444444444
4002, -3.52843421709, 0.661581415704, 2.23578289146
4003, -3.08737993995, 0.578883738741, 2.45631003002
4004, -3.49148624378, 0.872871560944, 2.25425687811
4005, -3.0550504633, 0.763762615826, 2.47247476835
4006, -3.44564417317, 1.07676380412, 2.27717791341
4007, -3.01493865153, 0.942168328602, 2.49253067424
4008, -3.39199321602, 1.27199745601, 2.30400339199
4009, -2.96799406402, 1.11299777401, 2.51600296799
4010, -3.33170692029, 1.45762177763, 2.33414653985
4011, -2.91524355525, 1.27541905542, 2.54237822237
4012, -3.26598632371, 1.63299316186, 2.36700683814
4013, -2.85773803325, 1.42886901662, 2.57113098338
4014, -3.19600748441, 1.79775420998, 2.4019962578
4015, -2.79650654886, 1.57303493373, 2.60174672557
4016, -3.12288023344, 1.9518001459, 2.43855988328
4017, -2.73252020426, 1.70782512766, 2.63373989787
4018, -3.04761904762, 2.09523809524, 2.47619047619
4019, -2.66666666667, 1.83333333333, 2.66666666667
4020, -2.97112541083, 2.22834405812, 2.51443729458
4021, -2.59973473448, 1.94980105086, 2.70013263276
4022, -2.89418004254, 2.35152128456, 2.55290997873
4023, -2.53240753722, 2.05758112399, 2.73379623139
4024, -2.81744290024, 2.46526253771, 2.59127854988
4025, -2.46526253771, 2.1571047205, 2.76736873114
4026, -2.74145879602, 2.57011762127, 2.62927060199
4027, -2.39877644652, 2.24885291861, 2.80061177674
4028, -2.66666666667, 2.66666666667, 2.66666666667
4029, -2.33333333333, 2.33333333333, 2.83333333333
4030, -2.70208211789, -2.70208211789, 2.81783907342
4031, -2.36432185316, -2.36432185316, 2.96560918924
4032, -2.77998235368, -2.60623345658, 2.78375772026
4033, -2.43248455947, -2.28045427451, 2.93578800523
4034, -2.8593091303, -2.50189548901, 2.7490522555
4035, -2.50189548901, -2.18915855288, 2.90542072356
4036, -2.93961735792, -2.38843910331, 2.71391740591
4037, -2.57216518818, -2.08988421539, 2.87467773017
4038, -3.02034674037, -2.26526005528, 2.67859830109
4039, -2.64280339782, -1.98210254837, 2.84377351345
4040, -3.10081013191, -2.13180696569, 2.64339556729
4041, -2.71320886542, -1.86533109498, 2.81297112138
4042, -3.180185568, -1.98761598, 2.608668814
4043, -2.782662372, -1.7391639825, 2.78258521225
4044, -3.25751423078, -1.83235175481, 2.57483752403
4045, -2.85032495193, -1.60330778546, 2.75298283353
4046, -3.33170692029, -1.66585346015, 2.54237822237
4047, -2.91524355525, -1.45762177763, 2.72458094458
4048, -3.4015616221, -1.48818320967, 2.51181679033
4049, -2.97636641934, -1.30216030846, 2.69783969154
4050, -3.46579431087, -1.29967286658, 2.48371498899
4051, -3.03257002201, -1.13721375826, 2.67325061537
4052, -3.5230840484, -1.10096376513, 2.45865072882
4053, -3.08269854235, -0.963343294486, 2.65131938772
4054, -3.57213166199, -0.893032915498, 2.43719239788
4055, -3.12561520424, -0.78140380106, 2.63254334814
4056, -3.61172894709, -0.67719917758, 2.41986858565
4057, -3.16026282871, -0.592549280382, 2.61738501244
4058, -3.64083279353, -0.455104099191, 2.40713565283
4059, -3.18572869434, -0.398216086792, 2.60624369623
4060, -3.65863648304, -0.22866478019, 2.39934653867
4061, -3.20130692266, -0.200081682666, 2.59942822134
4062, -3.66462933961, 0, 2.39672466392
4063, -3.20655067216, 0, 2.59713408093
4064, -3.65863648304, 0.22866478019, 2.39934653867
4065, -3.20130692266, 0.200081682666, 2.59942822134
4066, -3.64083279353, 0.455104099191, 2.40713565283
4067, -3.18572869434, 0.398216086792, 2.60624369623
4068, -3.61172894709, 0.67719917758, 2.41986858565
4069, -3.16026282871, 0.592549280382, 2.61738501244
4070, -3.57213166199, 0.893032915498, 2.43719239788
4071, -3.12561520424, 0.78140380106, 2.63254334814
4072, -3.5230840484, 1.10096376513, 2.45865072882
4073, -3.08269854235, 0.963343294486, 2.65131938772
4074, -3.46579431087, 1.29967286658, 2.48371498899
4075, -3.03257002201, 1.13721375826, 2.67325061537
4076, -3.4015616221, 1.48818320967, 2.51181679033
4077, -2.97636641934, 1.30216030846, 2.69783969154
4078, -3.33170692029, 1.66585346015, 2.54237822237
4079, -2.91524355525, 1.45762177763, 2.72458094458
4080, -3.25751423078, 1.83235175481, 2.57483752403
4081, -2.85032495193, 1.60330778546, 2.75298283353
4082, -3.180185568, 1.98761598, 2.608668814
4083, -2.782662372, 1.7391639825, 2.78258521225
4084, -3.10081013191, 2.13180696569, 2.64339556729
4085, -2.71320886542, 1.86533109498, 2.81297112138
4086, -3.02034674037, 2.26526005528, 2.67859830109
4087, -2.64280339782, 1.98210254837, 2.84377351345
4088, -2.93961735792, 2.38843910331, 2.71391740591
4089, -2.57216518818, 2.08988421539, 2.87467773017
4090, -2.8593091303, 2.50189548901, 2.7490522555
4091, -2.50189548901, 2.18915855288, 2.90542072356
4092, -2.77998235368, 2.60623345658, 2.78375772026
4093, -2.43248455947, 2.28045427451, 2.93578800523
4094, -2.70208211789, 2.70208211789, 2.81783907342
4095, -2.36432185316, 2.36432185316, 2.96560918924
4096, -2.73394450469, -2.73394450469, 2.97477081074
4097, -2.39220144161, -2.39220144161, 3.1029244594
4098, -2.81471678165, -2.6387969828, 2.94448120688
4099, -2.46287718395, -2.30894735995, 3.07642105602
4100, -2.89714387336, -2.53500088919, 2.91357104749
4101, -2.53500088919, -2.21812577804, 3.04937466655
4102, -2.98077717013, -2.42188145073, 2.8822085612
4103, -2.60818002386, -2.11914626939, 3.02193249105
4104, -3.06504411271, -2.29878308453, 2.85060845773
4105, -2.68191359862, -2.01143519896, 2.99428240052
4106, -3.14923412035, -2.16509845774, 2.81903720487
4107, -2.75557985531, -1.89446115052, 2.96665755426
4108, -3.23248814257, -2.0203050891, 2.78781694654
4109, -2.82842712475, -1.76776695297, 2.93933982822
4110, -3.3137943877, -1.86400934308, 2.75732710461
4111, -2.89957008924, -1.6310081752, 2.91266121654
4112, -3.39199321602, -1.69599660801, 2.72800254399
4113, -2.96799406402, -1.48399703201, 2.88700222599
4114, -3.46579431087, -1.51628501101, 2.70032713342
4115, -3.03257002201, -1.32674938463, 2.86278624174
4116, -3.5338088344, -1.3251783129, 2.6748216871
4117, -3.0920827301, -1.15953102379, 2.84046897621
4118, -3.59459812033, -1.1233119126, 2.65202570488
4119, -3.14527335529, -0.982897923528, 2.82052249177
4120, -3.64673844671, -0.911684611677, 2.63247308248
4121, -3.19089614087, -0.797724035217, 2.80341394717
4122, -3.68889867331, -0.691668501245, 2.61666299751
4123, -3.22778633914, -0.605209938589, 2.78958012282
4124, -3.7199244398, -0.464990554975, 2.60502833507
4125, -3.25493388483, -0.406866735603, 2.77939979319
4126, -3.73891992216, -0.233682495135, 2.59790502919
4127, -3.27155493189, -0.204472183243, 2.77316690054
4128, -3.74531671028, 0, 2.59550623365
4129, -3.27715212149, 0, 2.77106795444
4130, -3.73891992216, 0.233682495135, 2.59790502919
4131, -3.27155493189, 0.204472183243, 2.77316690054
4132, -3.7199244398, 0.464990554975, 2.60502833507
4133, -3.25493388483, 0.406866735603, 2.77939979319
4134, -3.68889867331, 0.691668501245, 2.61666299751
4135, -3.22778633914, 0.605209938589, 2.78958012282
4136, -3.64673844671, 0.911684611677, 2.63247308248
4137, -3.19089614087, 0.797724035217, 2.80341394717
4138, -3.59459812033, 1.1233119126, 2.65202570488
4139, -3.14527335529, 0.982897923528, 2.82052249177
4140, -3.5338088344, 1.3251783129, 2.6748216871
4141, -3.0920827301, 1.15953102379, 2.84046897621
4142, -3.46579431087, 1.51628501101, 2.70032713342
4143, -3.03257002201, 1.32674938463, 2.86278624174
4144, -3.39199321602, 1.69599660801, 2.72800254399
4145, -2.96799406402, 1.48399703201, 2.88700222599
4146, -3.3137943877, 1.86400934308, 2.75732710461
4147, -2.89957008924, 1.6310081752, 2.91266121654
4148, -3.23248814257, 2.0203050891, 2.78781694654
4149, -2.82842712475, 1.76776695297, 2.93933982822
4150, -3.14923412035, 2.16509845774, 2.81903720487
4151, -2.75557985531, 1.89446115052, 2.96665755426
4152, -3.06504411271, 2.29878308453, 2.85060845773
4153, -2.68191359862, 2.01143519896, 2.99428240052
4154, -2.98077717013, 2.42188145073, 2.8822085612
4155, -2.60818002386, 2.11914626939, 3.02193249105
4156, -2.89714387336, 2.53500088919, 2.91357104749
4157, -2.53500088919, 2.21812577804, 3.04937466655
4158, -2.81471678165, 2.6387969828, 2.94448120688
4159, -2.46287718395, 2.30894735995, 3.07642105602
4160, -2.73394450469, 2.73394450469, 2.97477081074
4161, -2.39220144161, 2.39220144161, 3.1029244594
4162, -2.76180385281, -2.76180385281, 3.136936296
4163, -2.41657837121, -2.41657837121, 3.244819259
4164, -2.84514703664, -2.66732534685, 3.11089155105
4165, -2.48950365706, -2.33390967849, 3.22203010717
4166, -2.93035869757, -2.56406386038, 3.08426290701
4167, -2.56406386038, -2.24355587783, 3.19873004363
4168, -3.01698893306, -2.45130350811, 3.05719095842
4169, -2.63986531643, -2.1448905696, 3.17504208862
4170, -3.10445600047, -2.32834200035, 3.02985749985
4171, -2.71639900041, -2.03729925031, 3.15112531237
4172, -3.19202987554, -2.19452053944, 3.00249066389
4173, -2.7930261411, -1.92020547201, 3.12717933091
4174, -3.2788193253, -2.04926207831, 2.97536896084
4175, -2.86896690964, -1.79310431852, 3.10344784074
4176, -3.36376531986, -1.89211799242, 2.94882333754
4177, -2.94329465487, -1.65560324337, 3.08022042035
4178, -3.44564417317, -1.72282208659, 2.92323619588
4179, -3.01493865153, -1.50746932576, 3.0578316714
4180, -3.5230840484, -1.54134927118, 2.89903623487
4181, -3.08269854235, -1.34868061228, 3.03665670551
4182, -3.59459812033, -1.34797429512, 2.8766880874
4183, -3.14527335529, -1.17947750823, 3.01710207647
4184, -3.65863648304, -1.14332390095, 2.85667609905
4185, -3.20130692266, -1.00040841333, 2.99959158667
4186, -3.71365666039, -0.928414165097, 2.83948229363
4187, -3.24944957784, -0.81236239446, 2.98454700693
4188, -3.75820940489, -0.704664263418, 2.82555956097
4189, -3.28843322928, -0.61658123049, 2.97236461585
4190, -3.79103281766, -0.473879102207, 2.81530224448
4191, -3.31715371545, -0.414644214431, 2.96338946392
4192, -3.81114453872, -0.23819653367, 2.80901733165
4193, -3.33475147138, -0.208421966961, 2.95789016519
4194, -3.81791991214, 0, 2.80690002746
4195, -3.34067992312, 0, 2.95603752402
4196, -3.81114453872, 0.23819653367, 2.80901733165
4197, -3.33475147138, 0.208421966961, 2.95789016519
4198, -3.79103281766, 0.473879102207, 2.81530224448
4199, -3.31715371545, 0.414644214431, 2.96338946392
4200, -3.75820940489, 0.704664263418, 2.82555956097
4201, -3.28843322928, 0.61658123049, 2.97236461585
4202, -3.71365666039, 0.928414165097, 2.83948229363
4203, -3.24944957784, 0.81236239446, 2.98454700693
4204, -3.65863648304, 1.14332390095, 2.85667609905
4205, -3.20130692266, 1.00040841333, 2.99959158667
4206, -3.59459812033, 1.34797429512, 2.8766880874
4207, -3.14527335529, 1.17947750823, 3.01710207647
4208, -3.5230840484, 1.54134927118, 2.89903623487
4209, -3.08269854235, 1.34868061228, 3.03665670551
4210, -3.44564417317, 1.72282208659, 2.92323619588
4211, -3.01493865153, 1.50746932576, 3.0578316714
4212, -3.36376531986, 1.89211799242, 2.94882333754
4213, -2.94329465487, 1.65560324337, 3.08022042035
4214, -3.2788193253, 2.04926207831, 2.97536896084
4215, -2.86896690964, 1.79310431852, 3.10344784074
4216, -3.19202987554, 2.19452053944, 3.00249066389
4217, -2.7930261411, 1.92020547201, 3.12717933091
4218, -3.10445600047, 2.32834200035, 3.02985749985
4219, -2.71639900041, 2.03729925031, 3.15112531237
4220, -3.01698893306, 2.45130350811, 3.05719095842
4221, -2.63986531643, 2.1448905696, 3.17504208862
4222, -2.93035869757, 2.56406386038, 3.08426290701
4223, -2.56406386038, 2.24355587783, 3.19873004363
4224, -2.84514703664, 2.66732534685, 3.11089155105
4225, -2.48950365706, 2.33390967849, 3.22203010717
4226, -2.76180385281, 2.76180385281, 3.136936296
4227, -2.41657837121, 2.41657837121, 3.244819259
4228, -2.78524249529, -2.78524249529, 3.30368937618
4229, -2.43708718338, -2.43708718338, 3.39072820416
4230, -2.8707923457, -2.6913678241, 3.28230191357
4231, -2.51194330249, -2.35494684609, 3.37201417438
4232, -2.95840104653, -2.58860091572, 3.26039973837
4233, -2.58860091572, -2.26502580125, 3.35284977107
4234, -3.04761904762, -2.47619047619, 3.2380952381
4235, -2.66666666667, -2.16666666667, 3.33333333333
4236, -3.13785816221, -2.35339362166, 3.21553545945
4237, -2.74562589193, -2.05921941895, 3.31359352702
4238, -3.22837294275, -2.21950639814, 3.19290676431
4239, -2.82482632491, -1.94206809838, 3.29379341877
4240, -3.31824542314, -2.07390338946, 3.17043864422
4241, -2.90346474525, -1.81466546578, 3.27413381369
4242, -3.40637629064, -1.91608666348, 3.14840592734
4243, -2.98057925431, -1.67657583055, 3.25485518642
4244, -3.49148624378, -1.74574312189, 3.12712843906
4245, -3.0550504633, -1.52752523165, 3.23623738417
4246, -3.57213166199, -1.56280760212, 3.1069670845
4247, -3.12561520424, -1.36745665186, 3.21859619894
4248, -3.64673844671, -1.36752691752, 3.08831538832
4249, -3.19089614087, -1.19658605283, 3.20227596478
4250, -3.71365666039, -1.16051770637, 3.0715858349
4251, -3.24944957784, -1.01545299307, 3.18763760554
4252, -3.77123616633, -0.942809041582, 3.05719095842
4253, -3.29983164554, -0.824957911384, 3.17504208862
4254, -3.81791991214, -0.715859983526, 3.04552002196
4255, -3.34067992312, -0.626377485585, 3.16483001922
4256, -3.85234729874, -0.481543412343, 3.03691317531
4257, -3.3708038864, -0.4213504858, 3.1572990284
4258, -3.87345620908, -0.242091013068, 3.03163594773
4259, -3.38927418295, -0.211829636434, 3.15268145426
4260, -3.88057000058, 0, 3.02985749985
4261, -3.39549875051, 0, 3.15112531237
4262, -3.87345620908, 0.242091013068, 3.03163594773
4263, -3.38927418295, 0.211829636434, 3.15268145426
4264, -3.85234729874, 0.481543412343, 3.03691317531
4265, -3.3708038864, 0.4213504858, 3.1572990284
4266, -3.81791991214, 0.715859983526, 3.04552002196
4267, -3.34067992312, 0.626377485585, 3.16483001922
4268, -3.77123616633, 0.942809041582, 3.05719095842
4269, -3.29983164554, 0.824957911384, 3.17504208862
4270, -3.71365666039, 1.16051770637, 3.0715858349
4271, -3.24944957784, 1.01545299307, 3.18763760554
4272, -3.64673844671, 1.36752691752, 3.08831538832
4273, -3.19089614087, 1.19658605283, 3.20227596478
4274, -3.57213166199, 1.56280760212, 3.1069670845
4275, -3.12561520424, 1.36745665186, 3.21859619894
4276, -3.49148624378, 1.74574312189, 3.12712843906
4277, -3.0550504633, 1.52752523165, 3.23623738417
4278, -3.40637629064, 1.91608666348, 3.14840592734
4279, -2.98057925431, 1.67657583055, 3.25485518642
4280, -3.31824542314, 2.07390338946, 3.17043864422
4281, -2.90346474525, 1.81466546578, 3.27413381369
4282, -3.22837294275, 2.21950639814, 3.19290676431
4283, -2.82482632491, 1.94206809838, 3.29379341877
4284, -3.13785816221, 2.35339362166, 3.21553545945
4285, -2.74562589193, 2.05921941895, 3.31359352702
4286, -3.04761904762, 2.47619047619, 3.2380952381
4287, -2.66666666667, 2.16666666667, 3.33333333333
4288, -2.95840104653, 2.58860091572, 3.26039973837
4289, -2.58860091572, 2.26502580125, 3.35284977107
4290, -2.8707923457, 2.6913678241, 3.28230191357
4291, -2.51194330249, 2.35494684609, 3.37201417438
4292, -2.78524249529, 2.78524249529, 3.30368937618
4293, -2.43708718338, 2.43708718338, 3.39072820416
4294, -2.80389090777, -2.80389090777, 3.47427045479
4295, -2.45340454429, -2.45340454429, 3.53998664794
4296, -2.8912252893, -2.71052370872, 3.45789525826
4297, -2.52982212813, -2.37170824513, 3.52565835097
4298, -2.98077717013, -2.60818002386, 3.4411042806
4299, -2.60818002386, -2.28215752088, 3.51096624553
4300, -3.07209830872, -2.49607987583, 3.42398156712
4301, -2.68808602013, -2.18406989135, 3.49598387123
4302, -3.16459632918, -2.37344724688, 3.40663818828
4303, -2.76902178803, -2.07676634102, 3.48080841474
4304, -3.25751423078, -2.23954103366, 3.38921608173
4305, -2.85032495193, -1.95959840445, 3.46556407151
4306, -3.34991310458, -2.09369569036, 3.37189129289
4307, -2.93117396651, -1.83198372907, 3.45040488128
4308, -3.44066131565, -1.93537199005, 3.35487600332
4309, -3.01057865119, -1.6934504913, 3.4355165029
4310, -3.52843421709, -1.76421710854, 3.3384185843
4311, -3.08737993995, -1.54368996998, 3.42111626126
4312, -3.61172894709, -1.58013141435, 3.32280082242
4313, -3.16026282871, -1.38261498756, 3.40745071962
4314, -3.68889867331, -1.38333700249, 3.30833149875
4315, -3.22778633914, -1.21041987718, 3.39479006141
4316, -3.75820940489, -1.17444043903, 3.29533573658
4317, -3.28843322928, -1.02763538415, 3.38341876951
4318, -3.81791991214, -0.954479978035, 3.28414001647
4319, -3.34067992312, -0.835169980781, 3.37362251441
4320, -3.86638139731, -0.724946511996, 3.275053488
4321, -3.38308372265, -0.634328197997, 3.365671802
4322, -3.90214886944, -0.48776860868, 3.26834708698
4323, -3.41438026076, -0.426797532595, 3.35980370111
4324, -3.9240917727, -0.245255735794, 3.26423279262
4325, -3.43358030112, -0.21459876882, 3.35620369354
4326, -3.93148874774, 0, 3.2628458598
4327, -3.44005265427, 0, 3.35499012732
4328, -3.9240917727, 0.245255735794, 3.26423279262
4329, -3.43358030112, 0.21459876882, 3.35620369354
4330, -3.90214886944, 0.48776860868, 3.26834708698
4331, -3.41438026076, 0.426797532595, 3.35980370111
4332, -3.86638139731, 0.724946511996, 3.275053488
4333, -3.38308372265, 0.634328197997, 3.365671802
4334, -3.81791991214, 0.954479978035, 3.28414001647
4335, -3.34067992312, 0.835169980781, 3.37362251441
4336, -3.75820940489, 1.17444043903, 3.29533573658
4337, -3.28843322928, 1.02763538415, 3.38341876951
4338, -3.68889867331, 1.38333700249, 3.30833149875
4339, -3.22778633914, 1.21041987718, 3.39479006141
4340, -3.61172894709, 1.58013141435, 3.32280082242
4341, -3.16026282871, 1.38261498756, 3.40745071962
4342, -3.52843421709, 1.76421710854, 3.3384185843
4343, -3.08737993995, 1.54368996998, 3.42111626126
4344, -3.44066131565, 1.93537199005, 3.35487600332
4345, -3.01057865119, 1.6934504913, 3.4355165029
4346, -3.34991310458, 2.09369569036, 3.37189129289
4347, -2.93117396651, 1.83198372907, 3.45040488128
4348, -3.25751423078, 2.23954103366, 3.38921608173
4349, -2.85032495193, 1.95959840445, 3.46556407151
4350, -3.16459632918, 2.37344724688, 3.40663818828
4351, -2.76902178803, 2.07676634102, 3.48080841474
4352, -3.07209830872, 2.49607987583, 3.42398156712
4353, -2.68808602013, 2.18406989135, 3.49598387123
4354, -2.98077717013, 2.60818002386, 3.4411042806
4355, -2.60818002386, 2.28215752088, 3.51096624553
4356, -2.8912252893, 2.71052370872, 3.45789525826
4357, -2.52982212813, 2.37170824513, 3.52565835097
4358, -2.80389090777, 2.80389090777, 3.47427045479
4359, -2.45340454429, 2.45340454429, 3.53998664794
4360, -2.81744290024, -2.81744290024, 3.64781963747
4361, -2.46526253771, -2.46526253771, 3.69184218279
4362, -2.90609029879, -2.72445965512, 3.63673871265
4363, -2.54282901144, -2.38390219823, 3.68214637357
4364, -2.99707459706, -2.62244027243, 3.62536567537
4365, -2.62244027243, -2.29463523838, 3.67219496595
4366, -3.08994911735, -2.51058365784, 3.61375636033
4367, -2.70370547768, -2.19676070061, 3.66203681529
4368, -3.18411900867, -2.3880892565, 3.60198512392
4369, -2.78610413259, -2.08957809944, 3.65173698343
4370, -3.2788193253, -2.25418828615, 3.59014758434
4371, -2.86896690964, -1.97241475038, 3.6413791363
4372, -3.37309617085, -2.10818510678, 3.57836297864
4373, -2.95145914949, -1.84466196843, 3.63106760631
4374, -3.46579431087, -1.94950929987, 3.56677571114
4375, -3.03257002201, -1.70582063738, 3.62092874725
4376, -3.55555555556, -1.77777777778, 3.55555555556
4377, -3.11111111111, -1.55555555556, 3.61111111111
4378, -3.64083279353, -1.59286434717, 3.54489590081
4379, -3.18572869434, -1.39375630377, 3.60178391321
4380, -3.7199244398, -1.39497166493, 3.53500944502
4381, -3.25493388483, -1.22060020681, 3.5931332644
4382, -3.79103281766, -1.18469775552, 3.52612089779
4383, -3.31715371545, -1.03661053608, 3.58535578557
4384, -3.85234729874, -0.963086824686, 3.51845658766
4385, -3.3708038864, -0.8427009716, 3.5786495142
4386, -3.90214886944, -0.73165291302, 3.51223139132
4387, -3.41438026076, -0.640196298892, 3.57320246741
4388, -3.93892771134, -0.492365963917, 3.50763403608
4389, -3.44656174742, -0.430820218428, 3.56917978157
4390, -3.96150054778, -0.247593784236, 3.50481243153
4391, -3.4663129793, -0.216644561207, 3.56671087759
4392, -3.96911150685, 0, 3.50386106164
4393, -3.4729725685, 0, 3.56587842894
4394, -3.96150054778, 0.247593784236, 3.50481243153
4395, -3.4663129793, 0.216644561207, 3.56671087759
4396, -3.93892771134, 0.492365963917, 3.50763403608
4397, -3.44656174742, 0.430820218428, 3.56917978157
4398, -3.90214886944, 0.73165291302, 3.51223139132
4399, -3.41438026076, 0.640196298892, 3.57320246741
4400, -3.85234729874, 0.963086824686, 3.51845658766
4401, -3.3708038864, 0.8427009716, 3.5786495142
4402, -3.79103281766, 1.18469775552, 3.52612089779
4403, -3.31715371545, 1.03661053608, 3.58535578557
4404, -3.7199244398, 1.39497166493, 3.53500944502
4405, -3.25493388483, 1.22060020681, 3.5931332644
4406, -3.64083279353, 1.59286434717, 3.54489590081
4407, -3.18572869434, 1.39375630377, 3.60178391321
4408, -3.55555555556, 1.77777777778, 3.55555555556
4409, -3.11111111111, 1.55555555556, 3.61111111111
4410, -3.46579431087, 1.94950929987, 3.56677571114
4411, -3.03257002201, 1.70582063738, 3.62092874725
4412, -3.37309617085, 2.10818510678, 3.57836297864
4413, -2.95145914949, 1.84466196843, 3.63106760631
4414, -3.2788193253, 2.25418828615, 3.59014758434
4415, -2.86896690964, 1.97241475038, 3.6413791363
4416, -3.18411900867, 2.3880892565, 3.60198512392
4417, -2.78610413259, 2.08957809944, 3.65173698343
4418, -3.08994911735, 2.51058365784, 3.61375636033
4419, -2.70370547768, 2.19676070061, 3.66203681529
4420, -2.99707459706, 2.62244027243, 3.62536567537
4421, -2.62244027243, 2.29463523838, 3.67219496595
4422, -2.90609029879, 2.72445965512, 3.63673871265
4423, -2.54282901144, 2.38390219823, 3.68214637357
4424, -2.81744290024, 2.81744290024, 3.64781963747
4425, -2.46526253771, 2.46526253771, 3.69184218279
4426, -2.82566902841, -2.82566902841, 3.82339568572
4427, -2.47246039985, -2.47246039985, 3.84547122501
4428, -2.91512011952, -2.73292511205, 3.81780499253
4429, -2.55073010458, -2.39130947304, 3.84057936846
4430, -3.0069823087, -2.63110952012, 3.81206360571
4431, -2.63110952012, -2.3022208301, 3.83555565499
4432, -3.10081013191, -2.51940823218, 3.80619936676
4433, -2.71320886542, -2.20448220316, 3.83042444591
4434, -3.19600748441, -2.39700561331, 3.80024953222
4435, -2.79650654886, -2.09737991164, 3.8252183407
4436, -3.29180479919, -2.26311579944, 3.79426220005
4437, -2.88032919929, -1.98022632451, 3.81997942504
4438, -3.38723919376, -2.1170244961, 3.78829755039
4439, -2.96383429454, -1.85239643409, 3.81476035659
4440, -3.48114107661, -1.95814185559, 3.78242868271
4441, -3.04599844203, -1.71337412364, 3.80962509737
4442, -3.57213166199, -1.786065831, 3.77674177113
4443, -3.12561520424, -1.56280760212, 3.80464904973
4444, -3.65863648304, -1.60065346133, 3.77133521981
4445, -3.20130692266, -1.40057177866, 3.79991831733
4446, -3.73891992216, -1.40209497081, 3.76631750487
4447, -3.27155493189, -1.22683309946, 3.79552781676
4448, -3.81114453872, -1.19098266835, 3.76180346633
4449, -3.33475147138, -1.04210983481, 3.79157803304
4450, -3.87345620908, -0.96836405227, 3.75790898693
4451, -3.38927418295, -0.847318545736, 3.78817036357
4452, -3.9240917727, -0.735767207382, 3.75474426421
4453, -3.43358030112, -0.643796306459, 3.78540123118
4454, -3.96150054778, -0.495187568472, 3.75240621576
4455, -3.4663129793, -0.433289122413, 3.78335543879
4456, -3.98446596073, -0.249029122546, 3.75097087745
4457, -3.48640771564, -0.217900482228, 3.78209951777
4458, -3.99221031393, 0, 3.75048685538
4459, -3.49318402469, 0, 3.78167599846
4460, -3.98446596073, 0.249029122546, 3.75097087745
4461, -3.48640771564, 0.217900482228, 3.78209951777
4462, -3.96150054778, 0.495187568472, 3.75240621576
4463, -3.4663129793, 0.433289122413, 3.78335543879
4464, -3.9240917727, 0.735767207382, 3.75474426421
4465, -3.43358030112, 0.643796306459, 3.78540123118
4466, -3.87345620908, 0.96836405227, 3.75790898693
4467, -3.38927418295, 0.847318545736, 3.78817036357
4468, -3.81114453872, 1.19098266835, 3.76180346633
4469, -3.33475147138, 1.04210983481, 3.79157803304
4470, -3.73891992216, 1.40209497081, 3.76631750487
4471, -3.27155493189, 1.22683309946, 3.79552781676
4472, -3.65863648304, 1.60065346133, 3.77133521981
4473, -3.20130692266, 1.40057177866, 3.79991831733
4474, -3.57213166199, 1.786065831, 3.77674177113
4475, -3.12561520424, 1.56280760212, 3.80464904973
4476, -3.48114107661, 1.95814185559, 3.78242868271
4477, -3.04599844203, 1.71337412364, 3.80962509737
4478, -3.38723919376, 2.1170244961, 3.78829755039
4479, -2.96383429454, 1.85239643409, 3.81476035659
4480, -3.29180479919, 2.26311579944, 3.79426220005
4481, -2.88032919929, 1.98022632451, 3.81997942504
4482, -3.19600748441, 2.39700561331, 3.80024953222
4483, -2.79650654886, 2.09737991164, 3.8252183407
4484, -3.10081013191, 2.51940823218, 3.80619936676
4485, -2.71320886542, 2.20448220316, 3.83042444591
4486, -3.0069823087, 2.63110952012, 3.81206360571
4487, -2.63110952012, 2.3022208301, 3.83555565499
4488, -2.91512011952, 2.73292511205, 3.81780499253
4489, -2.55073010458, 2.39130947304, 3.84057936846
4490, -2.82566902841, 2.82566902841, 3.82339568572
4491, -2.47246039985, 2.47246039985, 3.84547122501
4492, -2.82842712475, -2.82842712475, 4
4493, -2.47487373415, -2.47487373415, 4
4494, -2.91814881656, -2.73576451553, 4
4495, -2.55338021449, -2.39379395108, 4
4496, -3.01030677883, -2.63401843147, 4
4497, -2.63401843147, -2.30476612754, 4
4498, -3.10445600047, -2.52237050038, 4
4499, -2.71639900041, -2.20707418783, 4
4500, -3.2, -2.4, 4
4501, -2.8, -2.1, 4
4502, -3.2961676968, -2.26611529155, 4
4503, -2.8841467347, -1.9828508801, 4
4504, -3.39199321602, -2.11999576001, 4
4505, -2.96799406402, -1.85499629001, 4
4506, -3.4863021485, -1.96104495853, 4
4507, -3.05051437994, -1.71591433871, 4
4508, -3.577708764, -1.788854382, 4
4509, -3.1304951685, -1.56524758425, 4
4510, -3.66462933961, -1.60327533608, 4
4511, -3.20655067216, -1.40286591907, 4
4512, -3.74531671028, -1.40449376635, 4
4513, -3.27715212149, -1.22893204556, 4
4514, -3.81791991214, -1.19309997254, 4
4515, -3.34067992312, -1.04396247598, 4
4516, -3.88057000058, -0.970142500145, 4
4517, -3.39549875051, -0.848874687627, 4
4518, -3.93148874774, -0.737154140201, 4
4519, -3.44005265427, -0.645009872676, 4
4520, -3.96911150685, -0.496138938357, 4
4521, -3.4729725685, -0.434121571062, 4
4522, -3.99221031393, -0.249513144621, 4
4523, -3.49318402469, -0.218324001543, 4
4524, -4, 0, 4
4525, -3.5, 0, 4
4526, -3.99221031393, 0.249513144621, 4
4527, -3.49318402469, 0.218324001543, 4
4528, -3.96911150685, 0.496138938357, 4
4529, -3.4729725685, 0.434121571062, 4
4530, -3.93148874774, 0.737154140201, 4
4531, -3.44005265427, 0.645009872676, 4
4532, -3.88057000058, 0.970142500145, 4
4533, -3.39549875051, 0.848874687627, 4
4534, -3.81791991214, 1.19309997254, 4
4535, -3.34067992312, 1.04396247598, 4
4536, -3.74531671028, 1.40449376635, 4
4537, -3.27715212149, 1.22893204556, 4
4538, -3.66462933961, 1.60327533608, 4
4539, -3.20655067216, 1.40286591907, 4
4540, -3.577708764, 1.788854382, 4
4541, -3.1304951685, 1.56524758425, 4
4542, -3.4863021485, 1.96104495853, 4
4543, -3.05051437994, 1.71591433871, 4
4544, -3.39199321602, 2.11999576001, 4
4545, -2.96799406402, 1.85499629001, 4
4546, -3.2961676968, 2.26611529155, 4
4547, -2.8841467347, 1.9828508801, 4
4548, -3.2, 2.4, 4
4549, -2.8, 2.1, 4
4550, -3.10445600047, 2.52237050038, 4
4551, -2.71639900041, 2.20707418783, 4
4552, -3.01030677883, 2.63401843147, 4
4553, -2.63401843147, 2.30476612754, 4
4554, -2.91814881656, 2.73576451553, 4
4555, -2.55338021449, 2.39379395108, 4
4556, -2.82842712475, 2.82842712475, 4
4557, -2.47487373415, 2.47487373415, 4
4558, -2.25812978848, -2.40867177438, 1.74187021152
4559, -1.97586356492, -2.10758780259, 2.02413643508
4560, -2.15225483767, -2.45971981448, 1.69401267393
4561, -1.88322298296, -2.15225483767, 1.98226108969
4562, -2.03960780544, -2.51028652977, 1.64660637834
4563, -1.78465682976, -2.19650071355, 1.94078058105
4564, -1.92, -2.56, 1.6
4565, -1.68, -2.24, 1.9
4566, -1.79330612107, -2.60844526701, 1.55458256218
4567, -1.56914285593, -2.28238960863, 1.86025974191
4568, -1.65947962729, -2.65516740366, 1.51078055906
4569, -1.45204467388, -2.32327147821, 1.82193298918
4570, -1.51856834619, -2.6996770599, 1.46905275634
4571, -1.32874730292, -2.36221742741, 1.7854211618
4572, -1.37072939801, -2.74145879602, 1.42988237873
4573, -1.19938822326, -2.39877644652, 1.75114708139
4574, -1.21624227974, -2.77998235368, 1.39376654342
4575, -1.06421199477, -2.43248455947, 1.71954572549
4576, -1.05551879312, -2.81471678165, 1.3612030172
4577, -0.92357894398, -2.46287718395, 1.69105264005
4578, -0.889108448949, -2.84514703664, 1.33267465315
4579, -0.77796989283, -2.48950365706, 1.66609032151
4580, -0.717698086426, -2.8707923457, 1.3086321759
4581, -0.627985825623, -2.51194330249, 1.64505315391
4582, -0.542104741743, -2.8912252893, 1.28947629128
4583, -0.474341649025, -2.52982212813, 1.62829175487
4584, -0.363261287349, -2.90609029879, 1.27554034488
4585, -0.317853626431, -2.54282901144, 1.61609780177
4586, -0.18219500747, -2.91512011952, 1.26707488795
4587, -0.159420631536, -2.55073010458, 1.60869052696
4588, 0, -2.91814881656, 1.26423548447
4589, 0, -2.55338021449, 1.60620604892
4590, 0.18219500747, -2.91512011952, 1.26707488795
4591, 0.159420631536, -2.55073010458, 1.60869052696
4592, 0.363261287349, -2.90609029879, 1.27554034488
4593, 0.317853626431, -2.54282901144, 1.61609780177
4594, 0.542104741743, -2.8912252893, 1.28947629128
4595, 0.474341649025, -2.52982212813, 1.62829175487
4596, 0.717698086426, -2.8707923457, 1.3086321759
4597, 0.627985825623, -2.51194330249, 1.64505315391
4598, 0.889108448949, -2.84514703664, 1.33267465315
4599, 0.77796989283, -2.48950365706, 1.66609032151
4600, 1.05551879312, -2.81471678165, 1.3612030172
4601, 0.92357894398, -2.46287718395, 1.69105264005
4602, 1.21624227974, -2.77998235368, 1.39376654342
4603, 1.06421199477, -2.43248455947, 1.71954572549
4604, 1.37072939801, -2.74145879602, 1.42988237873
4605, 1.19938822326, -2.39877644652, 1.75114708139
4606, 1.51856834619, -2.6996770599, 1.46905275634
4607, 1.32874730292, -2.36221742741, 1.7854211618
4608, 1.65947962729, -2.65516740366, 1.51078055906
4609, 1.45204467388, -2.32327147821, 1.82193298918
4610, 1.79330612107, -2.60844526701, 1.55458256218
4611, 1.56914285593, -2.28238960863, 1.86025974191
4612, 1.92, -2.56, 1.6
4613, 1.68, -2.24, 1.9
4614, 2.03960780544, -2.51028652977, 1.64660637834
4615, 1.78465682976, -2.19650071355, 1.94078058105
4616, 2.15225483767, -2.45971981448, 1.69401267393
4617, 1.88322298296, -2.15225483767, 1.98226108969
4618, 2.25812978848, -2.40867177438, 1.74187021152
4619, 1.97586356492, -2.10758780259, 2.02413643508
4620, 2.35747029979, -2.35747029979, 1.78987159395
4621, 2.06278651231, -2.06278651231, 2.06613764471
4622, -2.30598732607, -2.45971981448, 1.84774516233
4623, -2.01773891031, -2.15225483767, 2.11677701704
4624, -2.19988776369, -2.51415744422, 1.80011223631
4625, -1.92490179323, -2.19988776369, 2.07509820677
4626, -2.08668812015, -2.5682315325, 1.75279740907
4627, -1.82585210513, -2.24720259093, 2.03369773293
4628, -1.96615660925, -2.62154214566, 1.70615062255
4629, -1.72038703309, -2.29384937745, 1.99288179473
4630, -1.83812636984, -2.67363835612, 1.66056643839
4631, -1.60836057361, -2.33943356161, 1.95299563359
4632, -1.70251306152, -2.72402089843, 1.61648171388
4633, -1.48969892883, -2.38351828612, 1.91442149964
4634, -1.55933309457, -2.77214772367, 1.57437074178
4635, -1.36441645775, -2.42562925822, 1.87757439906
4636, -1.40872145012, -2.81744290024, 1.53473746229
4637, -1.23263126886, -2.46526253771, 1.8428952795
4638, -1.2509477445, -2.8593091303, 1.49810451099
4639, -1.09457927644, -2.50189548901, 1.81084144712
4640, -1.08642895251, -2.89714387336, 1.46499911081
4641, -0.950625333446, -2.53500088919, 1.78187422196
4642, -0.915737092991, -2.93035869757, 1.43593613962
4643, -0.801269956367, -2.56406386038, 1.75644412217
4644, -0.739600261634, -2.95840104653, 1.41139908428
4645, -0.647150228929, -2.58860091572, 1.73497419875
4646, -0.558895719399, -2.98077717013, 1.39181997614
4647, -0.489033754474, -2.60818002386, 1.71784247912
4648, -0.374634324633, -2.99707459706, 1.37755972757
4649, -0.327805034054, -2.62244027243, 1.70536476162
4650, -0.187936394294, -3.0069823087, 1.36889047988
4651, -0.164444345007, -2.63110952012, 1.6977791699
4652, 0, -3.01030677883, 1.36598156853
4653, 0, -2.63401843147, 1.69523387246
4654, 0.187936394294, -3.0069823087, 1.36889047988
4655, 0.164444345007, -2.63110952012, 1.6977791699
4656, 0.374634324633, -2.99707459706, 1.37755972757
4657, 0.327805034054, -2.62244027243, 1.70536476162
4658, 0.558895719399, -2.98077717013, 1.39181997614
4659, 0.489033754474, -2.60818002386, 1.71784247912
4660, 0.739600261634, -2.95840104653, 1.41139908428
4661, 0.647150228929, -2.58860091572, 1.73497419875
4662, 0.915737092991, -2.93035869757, 1.43593613962
4663, 0.801269956367, -2.56406386038, 1.75644412217
4664, 1.08642895251, -2.89714387336, 1.46499911081
4665, 0.950625333446, -2.53500088919, 1.78187422196
4666, 1.2509477445, -2.8593091303, 1.49810451099
4667, 1.09457927644, -2.50189548901, 1.81084144712
4668, 1.40872145012, -2.81744290024, 1.53473746229
4669, 1.23263126886, -2.46526253771, 1.8428952795
4670, 1.55933309457, -2.77214772367, 1.57437074178
4671, 1.36441645775, -2.42562925822, 1.87757439906
4672, 1.70251306152, -2.72402089843, 1.61648171388
4673, 1.48969892883, -2.38351828612, 1.91442149964
4674, 1.83812636984, -2.67363835612, 1.66056643839
4675, 1.60836057361, -2.33943356161, 1.95299563359
4676, 1.96615660925, -2.62154214566, 1.70615062255
4677, 1.72038703309, -2.29384937745, 1.99288179473
4678, 2.08668812015, -2.5682315325, 1.75279740907
4679, 1.82585210513, -2.24720259093, 2.03369773293
4680, 2.19988776369, -2.51415744422, 1.80011223631
4681, 1.92490179323, -2.19988776369, 2.07509820677
4682, 2.30598732607, -2.45971981448, 1.84774516233
4683, 2.01773891031, -2.15225483767, 2.11677701704
4684, 2.40526728961, -2.40526728961, 1.89539112159
4685, 2.10460887841, -2.10460887841, 2.15846723139
4686, -2.35339362166, -2.51028652977, 1.96039219456
4687, -2.05921941895, -2.19650071355, 2.21534317024
4688, -2.24720259093, -2.5682315325, 1.91331187985
4689, -1.96630226707, -2.24720259093, 2.17414789487
4690, -2.13358584364, -2.62595180756, 1.86641415636
4691, -1.86688761319, -2.29770783161, 2.13311238681
4692, -2.01226467912, -2.68301957216, 1.82004659762
4693, -1.76073159423, -2.34764212564, 2.09254077292
4694, -1.88302616705, -2.73894715207, 1.77460543894
4695, -1.64764789617, -2.39657875806, 2.05277975908
4696, -1.74574312189, -2.79318899502, 1.73053394155
4697, -1.52752523165, -2.44404037064, 2.01421719885
4698, -1.60039520811, -2.84514703664, 1.68831803273
4699, -1.40034580709, -2.48950365706, 1.97727827864
4700, -1.44709002127, -2.89418004254, 1.64847871544
4701, -1.26620376861, -2.53240753722, 1.94241887601
4702, -1.28608259409, -2.93961735792, 1.61156089669
4703, -1.12532226983, -2.57216518818, 1.91011578461
4704, -1.1177914388, -2.98077717013, 1.57811854927
4705, -0.978067508949, -2.60818002386, 1.88085373061
4706, -0.942809041582, -3.01698893306, 1.54869649189
4707, -0.824957911384, -2.63986531643, 1.8551094304
4708, -0.761904761905, -3.04761904762, 1.52380952381
4709, -0.666666666667, -2.66666666667, 1.83333333333
4710, -0.576018432885, -3.07209830872, 1.50392012417
4711, -0.504016128774, -2.68808602013, 1.81593010865
4712, -0.386243639668, -3.08994911735, 1.48941634216
4713, -0.33796318471, -2.70370547768, 1.80323929939
4714, -0.193800633245, -3.10081013191, 1.48059176782
4715, -0.169575554089, -2.71320886542, 1.79551779684
4716, 0, -3.10445600047, 1.47762949962
4717, 0, -2.71639900041, 1.79292581217
4718, 0.193800633245, -3.10081013191, 1.48059176782
4719, 0.169575554089, -2.71320886542, 1.79551779684
4720, 0.386243639668, -3.08994911735, 1.48941634216
4721, 0.33796318471, -2.70370547768, 1.80323929939
4722, 0.576018432885, -3.07209830872, 1.50392012417
4723, 0.504016128774, -2.68808602013, 1.81593010865
4724, 0.761904761905, -3.04761904762, 1.52380952381
4725, 0.666666666667, -2.66666666667, 1.83333333333
4726, 0.942809041582, -3.01698893306, 1.54869649189
4727, 0.824957911384, -2.63986531643, 1.8551094304
4728, 1.1177914388, -2.98077717013, 1.57811854927
4729, 0.978067508949, -2.60818002386, 1.88085373061
4730, 1.28608259409, -2.93961735792, 1.61156089669
4731, 1.12532226983, -2.57216518818, 1.91011578461
4732, 1.44709002127, -2.89418004254, 1.64847871544
4733, 1.26620376861, -2.53240753722, 1.94241887601
4734, 1.60039520811, -2.84514703664, 1.68831803273
4735, 1.40034580709, -2.48950365706, 1.97727827864
4736, 1.74574312189, -2.79318899502, 1.73053394155
4737, 1.52752523165, -2.44404037064, 2.01421719885
4738, 1.88302616705, -2.73894715207, 1.77460543894
4739, 1.64764789617, -2.39657875806, 2.05277975908
4740, 2.01226467912, -2.68301957216, 1.82004659762
4741, 1.76073159423, -2.34764212564, 2.09254077292
4742, 2.13358584364, -2.62595180756, 1.86641415636
4743, 1.86688761319, -2.29770783161, 2.13311238681
4744, 2.24720259093, -2.5682315325, 1.91331187985
4745, 1.96630226707, -2.24720259093, 2.17414789487
4746, 2.35339362166, -2.51028652977, 1.96039219456
4747, 2.05921941895, -2.19650071355, 2.21534317024
4748, 2.45248532877, -2.45248532877, 2.00735567038
4749, 2.14592466267, -2.14592466267, 2.25643621158
4750, -2.4, -2.56, 2.08
4751, -2.1, -2.24, 2.32
4752, -2.29384937745, -2.62154214566, 2.03384339075
4753, -2.00711820527, -2.29384937745, 2.27961296691
4754, -2.17995340238, -2.68301957216, 1.98773532088
4755, -1.90745922708, -2.34764212564, 2.23926840577
4756, -2.05798302171, -2.74397736228, 1.94201697829
4757, -1.800735144, -2.400980192, 2.199264856
4758, -1.92767499909, -2.80389090777, 1.89708181918
4759, -1.6867156242, -2.45340454429, 2.15994659178
4760, -1.788854382, -2.8621670112, 1.8533747416
4761, -1.56524758425, -2.5043961348, 2.1217028989
4762, -1.64145870932, -2.91814881656, 1.81138838758
4763, -1.43627637065, -2.55338021449, 2.08496483913
4764, -1.48556270542, -2.97112541083, 1.77165594188
4765, -1.29986736724, -2.59973473448, 2.05019894914
4766, -1.32140169891, -3.02034674037, 1.73473994472
4767, -1.15622648655, -2.64280339782, 2.01789745163
4768, -1.14939154227, -3.06504411271, 1.70121691547
4769, -1.00571759948, -2.68191359862, 1.98856480104
4770, -0.970142500145, -3.10445600047, 1.67165799965
4771, -0.848874687627, -2.71639900041, 1.96270074969
4772, -0.784464540553, -3.13785816221, 1.64660637834
4773, -0.686406472984, -2.74562589193, 1.94078058105
4774, -0.593361811721, -3.16459632918, 1.62655275312
4775, -0.519191585256, -2.76902178803, 1.92323365898
4776, -0.398014876084, -3.18411900867, 1.6119107435
4777, -0.348263016573, -2.78610413259, 1.91042190056
4778, -0.199750467776, -3.19600748441, 1.60299438669
4779, -0.174781659304, -2.79650654886, 1.90262008836
4780, 0, -3.2, 1.6
4781, 0, -2.8, 1.9
4782, 0.199750467776, -3.19600748441, 1.60299438669
4783, 0.174781659304, -2.79650654886, 1.90262008836
4784, 0.398014876084, -3.18411900867, 1.6119107435
4785, 0.348263016573, -2.78610413259, 1.91042190056
4786, 0.593361811721, -3.16459632918, 1.62655275312
4787, 0.519191585256, -2.76902178803, 1.92323365898
4788, 0.784464540553, -3.13785816221, 1.64660637834
4789, 0.686406472984, -2.74562589193, 1.94078058105
4790, 0.970142500145, -3.10445600047, 1.67165799965
4791, 0.848874687627, -2.71639900041, 1.96270074969
4792, 1.14939154227, -3.06504411271, 1.70121691547
4793, 1.00571759948, -2.68191359862, 1.98856480104
4794, 1.32140169891, -3.02034674037, 1.73473994472
4795, 1.15622648655, -2.64280339782, 2.01789745163
4796, 1.48556270542, -2.97112541083, 1.77165594188
4797, 1.29986736724, -2.59973473448, 2.05019894914
4798, 1.64145870932, -2.91814881656, 1.81138838758
4799, 1.43627637065, -2.55338021449, 2.08496483913
4800, 1.788854382, -2.8621670112, 1.8533747416
4801, 1.56524758425, -2.5043961348, 2.1217028989
4802, 1.92767499909, -2.80389090777, 1.89708181918
4803, 1.6867156242, -2.45340454429, 2.15994659178
4804, 2.05798302171, -2.74397736228, 1.94201697829
4805, 1.800735144, -2.400980192, 2.199264856
4806, 2.17995340238, -2.68301957216, 1.98773532088
4807, 1.90745922708, -2.34764212564, 2.23926840577
4808, 2.29384937745, -2.62154214566, 2.03384339075
4809, 2.00711820527, -2.29384937745, 2.27961296691
4810, 2.4, -2.56, 2.08
4811, 2.1, -2.24, 2.32
4812, 2.49878019022, -2.49878019022, 2.12591485734
4813, 2.18643266644, -2.18643266644, 2.36017550017
4814, -2.44541743782, -2.60844526701, 2.20669387893
4815, -2.13974025809, -2.28238960863, 2.43085714407
4816, -2.33943356161, -2.67363835612, 2.16187363016
4817, -2.04700436641, -2.33943356161, 2.39163942639
4818, -2.22539456106, -2.73894715207, 2.11697383295
4819, -1.94722024092, -2.39657875806, 2.35235210383
4820, -2.10291818082, -2.80389090777, 2.07232500091
4821, -1.84005340822, -2.45340454429, 2.3132843758
4822, -1.97168714577, -2.86790857567, 2.02831285423
4823, -1.72522625255, -2.50942000371, 2.27477374745
4824, -1.83147418598, -2.93035869757, 1.98537839542
4825, -1.60253991273, -2.56406386038, 2.23720609599
4826, -1.68216952866, -2.9905236065, 1.94401502053
4827, -1.47189833758, -2.61670815569, 2.20101314296
4828, -1.52380952381, -3.04761904762, 1.90476190476
4829, -1.33333333333, -2.66666666667, 2.16666666667
4830, -1.35660443271, -3.10081013191, 1.86819303431
4831, -1.18702887862, -2.71320886542, 2.13466890502
4832, -1.18096279513, -3.14923412035, 1.83490154226
4833, -1.03334244574, -2.75557985531, 2.10553884948
4834, -0.997509336108, -3.19202987554, 1.80547946056
4835, -0.872820669094, -2.7930261411, 2.07979452799
4836, -0.807093235689, -3.22837294275, 1.78049360186
4837, -0.706206581227, -2.82482632491, 2.05793190162
4838, -0.610783918271, -3.25751423078, 1.76045896634
4839, -0.534435928487, -2.85032495193, 2.04040159555
4840, -0.409852415663, -3.2788193253, 1.74581171385
4841, -0.358620863705, -2.86896690964, 2.02758524962
4842, -0.205737799949, -3.29180479919, 1.73688420056
4843, -0.180020574956, -2.88032919929, 2.01977367549
4844, 0, -3.2961676968, 1.73388470845
4845, 0, -2.8841467347, 2.0171491199
4846, 0.205737799949, -3.29180479919, 1.73688420056
4847, 0.180020574956, -2.88032919929, 2.01977367549
4848, 0.409852415663, -3.2788193253, 1.74581171385
4849, 0.358620863705, -2.86896690964, 2.02758524962
4850, 0.610783918271, -3.25751423078, 1.76045896634
4851, 0.534435928487, -2.85032495193, 2.04040159555
4852, 0.807093235689, -3.22837294275, 1.78049360186
4853, 0.706206581227, -2.82482632491, 2.05793190162
4854, 0.997509336108, -3.19202987554, 1.80547946056
4855, 0.872820669094, -2.7930261411, 2.07979452799
4856, 1.18096279513, -3.14923412035, 1.83490154226
4857, 1.03334244574, -2.75557985531, 2.10553884948
4858, 1.35660443271, -3.10081013191, 1.86819303431
4859, 1.18702887862, -2.71320886542, 2.13466890502
4860, 1.52380952381, -3.04761904762, 1.90476190476
4861, 1.33333333333, -2.66666666667, 2.16666666667
4862, 1.68216952866, -2.9905236065, 1.94401502053
4863, 1.47189833758, -2.61670815569, 2.20101314296
4864, 1.83147418598, -2.93035869757, 1.98537839542
4865, 1.60253991273, -2.56406386038, 2.23720609599
4866, 1.97168714577, -2.86790857567, 2.02831285423
4867, 1.72522625255, -2.50942000371, 2.27477374745
4868, 2.10291818082, -2.80389090777, 2.07232500091
4869, 1.84005340822, -2.45340454429, 2.3132843758
4870, 2.22539456106, -2.73894715207, 2.11697383295
4871, 1.94722024092, -2.39657875806, 2.35235210383
4872, 2.33943356161, -2.67363835612, 2.16187363016
4873, 2.04700436641, -2.33943356161, 2.39163942639
4874, 2.44541743782, -2.60844526701, 2.20669387893
4875, 2.13974025809, -2.28238960863, 2.43085714407
4876, 2.54377162725, -2.54377162725, 2.25115700626
4877, 2.22580017385, -2.22580017385, 2.46976238048
4878, -2.48921944094, -2.65516740366, 2.34052037271
4879, -2.17806701082, -2.32327147821, 2.54795532612
4880, -2.38351828612, -2.72402089843, 2.29748693848
4881, -2.08557850036, -2.38351828612, 2.51030107117
4882, -2.26946605845, -2.79318899502, 2.25425687811
4883, -1.98578280115, -2.44404037064, 2.47247476835
4884, -2.1466252584, -2.8621670112, 2.211145618
4885, -1.8782971011, -2.5043961348, 2.43475241575
4886, -2.01462160458, -2.93035869757, 2.16852581402
4887, -1.76279390401, -2.56406386038, 2.39746008727
4888, -1.87317162316, -2.99707459706, 2.12682837684
4889, -1.63902517027, -2.62244027243, 2.36097482973
4890, -1.72211354365, -3.0615351887, 2.08654050706
4891, -1.50684935069, -2.67884329012, 2.32572294368
4892, -1.56144011672, -3.12288023344, 2.0481998541
4893, -1.36626010213, -2.73252020426, 2.29217487234
4894, -1.391331186, -3.180185568, 2.01238402
4895, -1.21741478775, -2.782662372, 2.2608360175
4896, -1.21218305346, -3.23248814257, 1.9796949109
4897, -1.06066017178, -2.82842712475, 2.23223304703
4898, -1.02463103916, -3.2788193253, 1.95073792169
4899, -0.896552159262, -2.86896690964, 2.20689568148
4900, -0.829561355784, -3.31824542314, 1.92609661054
4901, -0.725866186311, -2.90346474525, 2.18533453422
4902, -0.628108707108, -3.34991310458, 1.90630430964
4903, -0.54959511872, -2.93117396651, 2.16801627093
4904, -0.421637021356, -3.37309617085, 1.89181489322
4905, -0.368932393686, -2.95145914949, 2.15533803157
4906, -0.21170244961, -3.38723919376, 1.8829755039
4907, -0.185239643409, -2.96383429454, 2.14760356591
4908, 0, -3.39199321602, 1.88000423999
4909, 0, -2.96799406402, 2.14500370999
4910, 0.21170244961, -3.38723919376, 1.8829755039
4911, 0.185239643409, -2.96383429454, 2.14760356591
4912, 0.421637021356, -3.37309617085, 1.89181489322
4913, 0.368932393686, -2.95145914949, 2.15533803157
4914, 0.628108707108, -3.34991310458, 1.90630430964
4915, 0.54959511872, -2.93117396651, 2.16801627093
4916, 0.829561355784, -3.31824542314, 1.92609661054
4917, 0.725866186311, -2.90346474525, 2.18533453422
4918, 1.02463103916, -3.2788193253, 1.95073792169
4919, 0.896552159262, -2.86896690964, 2.20689568148
4920, 1.21218305346, -3.23248814257, 1.9796949109
4921, 1.06066017178, -2.82842712475, 2.23223304703
4922, 1.391331186, -3.180185568, 2.01238402
4923, 1.21741478775, -2.782662372, 2.2608360175
4924, 1.56144011672, -3.12288023344, 2.0481998541
4925, 1.36626010213, -2.73252020426, 2.29217487234
4926, 1.72211354365, -3.0615351887, 2.08654050706
4927, 1.50684935069, -2.67884329012, 2.32572294368
4928, 1.87317162316, -2.99707459706, 2.12682837684
4929, 1.63902517027, -2.62244027243, 2.36097482973
4930, 2.01462160458, -2.93035869757, 2.16852581402
4931, 1.76279390401, -2.56406386038, 2.39746008727
4932, 2.1466252584, -2.8621670112, 2.211145618
4933, 1.8782971011, -2.5043961348, 2.43475241575
4934, 2.26946605845, -2.79318899502, 2.25425687811
4935, 1.98578280115, -2.44404037064, 2.47247476835
4936, 2.38351828612, -2.72402089843, 2.29748693848
4937, 2.08557850036, -2.38351828612, 2.51030107117
4938, 2.48921944094, -2.65516740366, 2.34052037271
4939, 2.17806701082, -2.32327147821, 2.54795532612
4940, 2.58704666705, -2.58704666705, 2.38309583309
4941, 2.26366583367, -2.26366583367, 2.58520885395
4942, -2.53094724366, -2.6996770599, 2.48143165381
4943, -2.2145788382, -2.36221742741, 2.67125269708
4944, -2.42562925822, -2.77214772367, 2.44066690543
4945, -2.12242560094, -2.42562925822, 2.63558354225
4946, -2.31168196727, -2.84514703664, 2.39960479189
4947, -2.02272172136, -2.48950365706, 2.59965419291
4948, -2.18861161242, -2.91814881656, 2.35854129068
4949, -1.91503516087, -2.55338021449, 2.56372362935
4950, -2.05598497947, -2.9905236065, 2.31783047134
4951, -1.79898685704, -2.61670815569, 2.52810166242
4952, -1.91345949294, -3.0615351887, 2.27788645635
4953, -1.67427705632, -2.67884329012, 2.49315064931
4954, -1.76081755696, -3.13034232348, 2.23918244304
4955, -1.54071536234, -2.73904953305, 2.45928463766
4956, -1.5980037422, -3.19600748441, 2.20224579002
4957, -1.39825327443, -2.79650654886, 2.42696506627
4958, -1.42516247597, -3.25751423078, 2.16764824519
4959, -1.24701716647, -2.85032495193, 2.39669221454
4960, -1.24267289539, -3.3137943877, 2.13599065692
4961, -1.08733878346, -2.89957008924, 2.3689918248
4962, -1.05117666246, -3.36376531986, 2.10788200758
4963, -0.919779579648, -2.94329465487, 2.34439675663
4964, -0.85159407266, -3.40637629064, 2.08391333652
4965, -0.745144813577, -2.98057925431, 2.32342416945
4966, -0.645123996685, -3.44066131565, 2.06462800995
4967, -0.564483497099, -3.01057865119, 2.3065495087
4968, -0.433224288859, -3.46579431087, 2.05049070013
4969, -0.379071252752, -3.03257002201, 2.29417936262
4970, -0.217571317288, -3.48114107661, 2.04185814441
4971, -0.190374902627, -3.04599844203, 2.28662587636
4972, 0, -3.4863021485, 2.03895504147
4973, 0, -3.05051437994, 2.28408566129
4974, 0.217571317288, -3.48114107661, 2.04185814441
4975, 0.190374902627, -3.04599844203, 2.28662587636
4976, 0.433224288859, -3.46579431087, 2.05049070013
4977, 0.379071252752, -3.03257002201, 2.29417936262
4978, 0.645123996685, -3.44066131565, 2.06462800995
4979, 0.564483497099, -3.01057865119, 2.3065495087
4980, 0.85159407266, -3.40637629064, 2.08391333652
4981, 0.745144813577, -2.98057925431, 2.32342416945
4982, 1.05117666246, -3.36376531986, 2.10788200758
4983, 0.919779579648, -2.94329465487, 2.34439675663
4984, 1.24267289539, -3.3137943877, 2.13599065692
4985, 1.08733878346, -2.89957008924, 2.3689918248
4986, 1.42516247597, -3.25751423078, 2.16764824519
4987, 1.24701716647, -2.85032495193, 2.39669221454
4988, 1.5980037422, -3.19600748441, 2.20224579002
4989, 1.39825327443, -2.79650654886, 2.42696506627
4990, 1.76081755696, -3.13034232348, 2.23918244304
4991, 1.54071536234, -2.73904953305, 2.45928463766
4992, 1.91345949294, -3.0615351887, 2.27788645635
4993, 1.67427705632, -2.67884329012, 2.49315064931
4994, 2.05598497947, -2.9905236065, 2.31783047134
4995, 1.79898685704, -2.61670815569, 2.52810166242
4996, 2.18861161242, -2.91814881656, 2.35854129068
4997, 1.91503516087, -2.55338021449, 2.56372362935
4998, 2.31168196727, -2.84514703664, 2.39960479189
4999, 2.02272172136, -2.48950365706, 2.59965419291
5000, 2.42562925822, -2.77214772367, 2.44066690543
5001, 2.12242560094, -2.42562925822, 2.63558354225
5002, 2.53094724366, -2.6996770599, 2.48143165381
5003, 2.2145788382, -2.36221742741, 2.67125269708
5004, 2.62816499953, -2.62816499953, 2.52165718776
5005, 2.29964437459, -2.29964437459, 2.70645003929
5006, -2.57011762127, -2.74145879602, 2.62927060199
5007, -2.24885291861, -2.39877644652, 2.80061177674
5008, -2.46526253771, -2.81744290024, 2.59127854988
5009, -2.1571047205, -2.46526253771, 2.76736873114
5010, -2.35152128456, -2.89418004254, 2.55290997873
5011, -2.05758112399, -2.53240753722, 2.73379623139
5012, -2.22834405812, -2.97112541083, 2.51443729458
5013, -1.94980105086, -2.59973473448, 2.70013263276
5014, -2.09523809524, -3.04761904762, 2.47619047619
5015, -1.83333333333, -2.66666666667, 2.66666666667
5016, -1.9518001459, -3.12288023344, 2.43855988328
5017, -1.70782512766, -2.73252020426, 2.63373989787
5018, -1.79775420998, -3.19600748441, 2.4019962578
5019, -1.57303493373, -2.79650654886, 2.60174672557
5020, -1.63299316186, -3.26598632371, 2.36700683814
5021, -1.42886901662, -2.85773803325, 2.57113098338
5022, -1.45762177763, -3.33170692029, 2.33414653985
5023, -1.27541905542, -2.91524355525, 2.54237822237
5024, -1.27199745601, -3.39199321602, 2.30400339199
5025, -1.11299777401, -2.96799406402, 2.51600296799
5026, -1.07676380412, -3.44564417317, 2.27717791341
5027, -0.942168328602, -3.01493865153, 2.49253067424
5028, -0.872871560944, -3.49148624378, 2.25425687811
5029, -0.763762615826, -3.0550504633, 2.47247476835
5030, -0.661581415704, -3.52843421709, 2.23578289146
5031, -0.578883738741, -3.08737993995, 2.45631003002
5032, -0.444444444444, -3.55555555556, 2.22222222222
5033, -0.388888888889, -3.11111111111, 2.44444444444
5034, -0.223258228874, -3.57213166199, 2.213934169
5035, -0.195350950265, -3.12561520424, 2.43719239788
5036, 0, -3.577708764, 2.211145618
5037, 0, -3.1304951685, 2.43475241575
5038, 0.223258228874, -3.57213166199, 2.213934169
5039, 0.195350950265, -3.12561520424, 2.43719239788
5040, 0.444444444444, -3.55555555556, 2.22222222222
5041, 0.388888888889, -3.11111111111, 2.44444444444
5042, 0.661581415704, -3.52843421709, 2.23578289146
5043, 0.578883738741, -3.08737993995, 2.45631003002
5044, 0.872871560944, -3.49148624378, 2.25425687811
5045, 0.763762615826, -3.0550504633, 2.47247476835
5046, 1.07676380412, -3.44564417317, 2.27717791341
5047, 0.942168328602, -3.01493865153, 2.49253067424
5048, 1.27199745601, -3.39199321602, 2.30400339199
5049, 1.11299777401, -2.96799406402, 2.51600296799
5050, 1.45762177763, -3.33170692029, 2.33414653985
5051, 1.27541905542, -2.91524355525, 2.54237822237
5052, 1.63299316186, -3.26598632371, 2.36700683814
5053, 1.42886901662, -2.85773803325, 2.57113098338
5054, 1.79775420998, -3.19600748441, 2.4019962578
5055, 1.57303493373, -2.79650654886, 2.60174672557
5056, 1.9518001459, -3.12288023344, 2.43855988328
5057, 1.70782512766, -2.73252020426, 2.63373989787
5058, 2.09523809524, -3.04761904762, 2.47619047619
5059, 1.83333333333, -2.66666666667, 2.66666666667
5060, 2.22834405812, -2.97112541083, 2.51443729458
5061, 1.94980105086, -2.59973473448, 2.70013263276
5062, 2.35152128456, -2.89418004254, 2.55290997873
5063, 2.05758112399, -2.53240753722, 2.73379623139
5064, 2.46526253771, -2.81744290024, 2.59127854988
5065, 2.1571047205, -2.46526253771, 2.76736873114
5066, 2.57011762127, -2.74145879602, 2.62927060199
5067, 2.24885291861, -2.39877644652, 2.80061177674
5068, 2.66666666667, -2.66666666667, 2.66666666667
5069, 2.33333333333, -2.33333333333, 2.83333333333
5070, -2.60623345658, -2.77998235368, 2.78375772026
5071, -2.28045427451, -2.43248455947, 2.93578800523
5072, -2.50189548901, -2.8593091303, 2.7490522555
5073, -2.18915855288, -2.50189548901, 2.90542072356
5074, -2.38843910331, -2.93961735792, 2.71391740591
5075, -2.08988421539, -2.57216518818, 2.87467773017
5076, -2.26526005528, -3.02034674037, 2.67859830109
5077, -1.98210254837, -2.64280339782, 2.84377351345
5078, -2.13180696569, -3.10081013191, 2.64339556729
5079, -1.86533109498, -2.71320886542, 2.81297112138
5080, -1.98761598, -3.180185568, 2.608668814
5081, -1.7391639825, -2.782662372, 2.78258521225
5082, -1.83235175481, -3.25751423078, 2.57483752403
5083, -1.60330778546, -2.85032495193, 2.75298283353
5084, -1.66585346015, -3.33170692029, 2.54237822237
5085, -1.45762177763, -2.91524355525, 2.72458094458
5086, -1.48818320967, -3.4015616221, 2.51181679033
5087, -1.30216030846, -2.97636641934, 2.69783969154
5088, -1.29967286658, -3.46579431087, 2.48371498899
5089, -1.13721375826, -3.03257002201, 2.67325061537
5090, -1.10096376513, -3.5230840484, 2.45865072882
5091, -0.963343294486, -3.08269854235, 2.65131938772
5092, -0.893032915498, -3.57213166199, 2.43719239788
5093, -0.78140380106, -3.12561520424, 2.63254334814
5094, -0.67719917758, -3.61172894709, 2.41986858565
5095, -0.592549280382, -3.16026282871, 2.61738501244
5096, -0.455104099191, -3.64083279353, 2.40713565283
5097, -0.398216086792, -3.18572869434, 2.60624369623
5098, -0.22866478019, -3.65863648304, 2.39934653867
5099, -0.200081682666, -3.20130692266, 2.59942822134
5100, 0, -3.66462933961, 2.39672466392
5101, 0, -3.20655067216, 2.59713408093
5102, 0.22866478019, -3.65863648304, 2.39934653867
5103, 0.200081682666, -3.20130692266, 2.59942822134
5104, 0.455104099191, -3.64083279353, 2.40713565283
5105, 0.398216086792, -3.18572869434, 2.60624369623
5106, 0.67719917758, -3.61172894709, 2.41986858565
5107, 0.592549280382, -3.16026282871, 2.61738501244
5108, 0.893032915498, -3.57213166199, 2.43719239788
5109, 0.78140380106, -3.12561520424, 2.63254334814
5110, 1.10096376513, -3.5230840484, 2.45865072882
5111, 0.963343294486, -3.08269854235, 2.65131938772
5112, 1.29967286658, -3.46579431087, 2.48371498899
5113, 1.13721375826, -3.03257002201, 2.67325061537
5114, 1.48818320967, -3.4015616221, 2.51181679033
5115, 1.30216030846, -2.97636641934, 2.69783969154
5116, 1.66585346015, -3.33170692029, 2.54237822237
5117, 1.45762177763, -2.91524355525, 2.72458094458
5118, 1.83235175481, -3.25751423078, 2.57483752403
5119, 1.60330778546, -2.85032495193, 2.75298283353
5120, 1.98761598, -3.180185568, 2.608668814
5121, 1.7391639825, -2.782662372, 2.78258521225
5122, 2.13180696569, -3.10081013191, 2.64339556729
5123, 1.86533109498, -2.71320886542, 2.81297112138
5124, 2.26526005528, -3.02034674037, 2.67859830109
5125, 1.98210254837, -2.64280339782, 2.84377351345
5126, 2.38843910331, -2.93961735792, 2.71391740591
5127, 2.08988421539, -2.57216518818, 2.87467773017
5128, 2.50189548901, -2.8593091303, 2.7490522555
5129, 2.18915855288, -2.50189548901, 2.90542072356
5130, 2.60623345658, -2.77998235368, 2.78375772026
5131, 2.28045427451, -2.43248455947, 2.93578800523
5132, 2.70208211789, -2.70208211789, 2.81783907342
5133, 2.36432185316, -2.36432185316, 2.96560918924
5134, -2.6387969828, -2.81471678165, 2.94448120688
5135, -2.30894735995, -2.46287718395, 3.07642105602
5136, -2.53500088919, -2.89714387336, 2.91357104749
5137, -2.21812577804, -2.53500088919, 3.04937466655
5138, -2.42188145073, -2.98077717013, 2.8822085612
5139, -2.11914626939, -2.60818002386, 3.02193249105
5140, -2.29878308453, -3.06504411271, 2.85060845773
5141, -2.01143519896, -2.68191359862, 2.99428240052
5142, -2.16509845774, -3.14923412035, 2.81903720487
5143, -1.89446115052, -2.75557985531, 2.96665755426
5144, -2.0203050891, -3.23248814257, 2.78781694654
5145, -1.76776695297, -2.82842712475, 2.93933982822
5146, -1.86400934308, -3.3137943877, 2.75732710461
5147, -1.6310081752, -2.89957008924, 2.91266121654
5148, -1.69599660801, -3.39199321602, 2.72800254399
5149, -1.48399703201, -2.96799406402, 2.88700222599
5150, -1.51628501101, -3.46579431087, 2.70032713342
5151, -1.32674938463, -3.03257002201, 2.86278624174
5152, -1.3251783129, -3.5338088344, 2.6748216871
5153, -1.15953102379, -3.0920827301, 2.84046897621
5154, -1.1233119126, -3.59459812033, 2.65202570488
5155, -0.982897923528, -3.14527335529, 2.82052249177
5156, -0.911684611677, -3.64673844671, 2.63247308248
5157, -0.797724035217, -3.19089614087, 2.80341394717
5158, -0.691668501245, -3.68889867331, 2.61666299751
5159, -0.605209938589, -3.22778633914, 2.78958012282
5160, -0.464990554975, -3.7199244398, 2.60502833507
5161, -0.406866735603, -3.25493388483, 2.77939979319
5162, -0.233682495135, -3.73891992216, 2.59790502919
5163, -0.204472183243, -3.27155493189, 2.77316690054
5164, 0, -3.74531671028, 2.59550623365
5165, 0, -3.27715212149, 2.77106795444
5166, 0.233682495135, -3.73891992216, 2.59790502919
5167, 0.204472183243, -3.27155493189, 2.77316690054
5168, 0.464990554975, -3.7199244398, 2.60502833507
5169, 0.406866735603, -3.25493388483, 2.77939979319
5170, 0.691668501245, -3.68889867331, 2.61666299751
5171, 0.605209938589, -3.22778633914, 2.78958012282
5172, 0.911684611677, -3.64673844671, 2.63247308248
5173, 0.797724035217, -3.19089614087, 2.80341394717
5174, 1.1233119126, -3.59459812033, 2.65202570488
5175, 0.982897923528, -3.14527335529, 2.82052249177
5176, 1.3251783129, -3.5338088344, 2.6748216871
5177, 1.15953102379, -3.0920827301, 2.84046897621
5178, 1.51628501101, -3.46579431087, 2.70032713342
5179, 1.32674938463, -3.03257002201, 2.86278624174
5180, 1.69599660801, -3.39199321602, 2.72800254399
5181, 1.48399703201, -2.96799406402, 2.88700222599
5182, 1.86400934308, -3.3137943877, 2.75732710461
5183, 1.6310081752, -2.89957008924, 2.91266121654
5184, 2.0203050891, -3.23248814257, 2.78781694654
5185, 1.76776695297, -2.82842712475, 2.93933982822
5186, 2.16509845774, -3.14923412035, 2.81903720487
5187, 1.89446115052, -2.75557985531, 2.96665755426
5188, 2.29878308453, -3.06504411271, 2.85060845773
5189, 2.01143519896, -2.68191359862, 2.99428240052
5190, 2.42188145073, -2.98077717013, 2.8822085612
5191, 2.11914626939, -2.60818002386, 3.02193249105
5192, 2.53500088919, -2.89714387336, 2.91357104749
5193, 2.21812577804, -2.53500088919, 3.04937466655
5194, 2.6387969828, -2.81471678165, 2.94448120688
5195, 2.30894735995, -2.46287718395, 3.07642105602
5196, 2.73394450469, -2.73394450469, 2.97477081074
5197, 2.39220144161, -2.39220144161, 3.1029244594
5198, -2.66732534685, -2.84514703664, 3.11089155105
5199, -2.33390967849, -2.48950365706, 3.22203010717
5200, -2.56406386038, -2.93035869757, 3.08426290701
5201, -2.24355587783, -2.56406386038, 3.19873004363
5202, -2.45130350811, -3.01698893306, 3.05719095842
5203, -2.1448905696, -2.63986531643, 3.17504208862
5204, -2.32834200035, -3.10445600047, 3.02985749985
5205, -2.03729925031, -2.71639900041, 3.15112531237
5206, -2.19452053944, -3.19202987554, 3.00249066389
5207, -1.92020547201, -2.7930261411, 3.12717933091
5208, -2.04926207831, -3.2788193253, 2.97536896084
5209, -1.79310431852, -2.86896690964, 3.10344784074
5210, -1.89211799242, -3.36376531986, 2.94882333754
5211, -1.65560324337, -2.94329465487, 3.08022042035
5212, -1.72282208659, -3.44564417317, 2.92323619588
5213, -1.50746932576, -3.01493865153, 3.0578316714
5214, -1.54134927118, -3.5230840484, 2.89903623487
5215, -1.34868061228, -3.08269854235, 3.03665670551
5216, -1.34797429512, -3.59459812033, 2.8766880874
5217, -1.17947750823, -3.14527335529, 3.01710207647
5218, -1.14332390095, -3.65863648304, 2.85667609905
5219, -1.00040841333, -3.20130692266, 2.99959158667
5220, -0.928414165097, -3.71365666039, 2.83948229363
5221, -0.81236239446, -3.24944957784, 2.98454700693
5222, -0.704664263418, -3.75820940489, 2.82555956097
5223, -0.61658123049, -3.28843322928, 2.97236461585
5224, -0.473879102207, -3.79103281766, 2.81530224448
5225, -0.414644214431, -3.31715371545, 2.96338946392
5226, -0.23819653367, -3.81114453872, 2.80901733165
5227, -0.208421966961, -3.33475147138, 2.95789016519
5228, 0, -3.81791991214, 2.80690002746
5229, 0, -3.34067992312, 2.95603752402
5230, 0.23819653367, -3.81114453872, 2.80901733165
5231, 0.208421966961, -3.33475147138, 2.95789016519
5232, 0.473879102207, -3.79103281766, 2.81530224448
5233, 0.414644214431, -3.31715371545, 2.96338946392
5234, 0.704664263418, -3.75820940489, 2.82555956097
5235, 0.61658123049, -3.28843322928, 2.97236461585
5236, 0.928414165097, -3.71365666039, 2.83948229363
5237, 0.81236239446, -3.24944957784, 2.98454700693
5238, 1.14332390095, -3.65863648304, 2.85667609905
5239, 1.00040841333, -3.20130692266, 2.99959158667
5240, 1.34797429512, -3.59459812033, 2.8766880874
5241, 1.17947750823, -3.14527335529, 3.01710207647
5242, 1.54134927118, -3.5230840484, 2.89903623487
5243, 1.34868061228, -3.08269854235, 3.03665670551
5244, 1.72282208659, -3.44564417317, 2.92323619588
5245, 1.50746932576, -3.01493865153, 3.0578316714
5246, 1.89211799242, -3.36376531986, 2.94882333754
5247, 1.65560324337, -2.94329465487, 3.08022042035
5248, 2.04926207831, -3.2788193253, 2.97536896084
5249, 1.79310431852, -2.86896690964, 3.10344784074
5250, 2.19452053944, -3.19202987554, 3.00249066389
5251, 1.92020547201, -2.7930261411, 3.12717933091
5252, 2.32834200035, -3.10445600047, 3.02985749985
5253, 2.03729925031, -2.71639900041, 3.15112531237
5254, 2.45130350811, -3.01698893306, 3.05719095842
5255, 2.1448905696, -2.63986531643, 3.17504208862
5256, 2.56406386038, -2.93035869757, 3.08426290701
5257, 2.24355587783, -2.56406386038, 3.19873004363
5258, 2.66732534685, -2.84514703664, 3.11089155105
5259, 2.33390967849, -2.48950365706, 3.22203010717
5260, 2.76180385281, -2.76180385281, 3.136936296
5261, 2.41657837121, -2.41657837121, 3.244819259
5262, -2.6913678241, -2.8707923457, 3.28230191357
5263, -2.35494684609, -2.51194330249, 3.37201417438
5264, -2.58860091572, -2.95840104653, 3.26039973837
5265, -2.26502580125, -2.58860091572, 3.35284977107
5266, -2.47619047619, -3.04761904762, 3.2380952381
5267, -2.16666666667, -2.66666666667, 3.33333333333
5268, -2.35339362166, -3.13785816221, 3.21553545945
5269, -2.05921941895, -2.74562589193, 3.31359352702
5270, -2.21950639814, -3.22837294275, 3.19290676431
5271, -1.94206809838, -2.82482632491, 3.29379341877
5272, -2.07390338946, -3.31824542314, 3.17043864422
5273, -1.81466546578, -2.90346474525, 3.27413381369
5274, -1.91608666348, -3.40637629064, 3.14840592734
5275, -1.67657583055, -2.98057925431, 3.25485518642
5276, -1.74574312189, -3.49148624378, 3.12712843906
5277, -1.52752523165, -3.0550504633, 3.23623738417
5278, -1.56280760212, -3.57213166199, 3.1069670845
5279, -1.36745665186, -3.12561520424, 3.21859619894
5280, -1.36752691752, -3.64673844671, 3.08831538832
5281, -1.19658605283, -3.19089614087, 3.20227596478
5282, -1.16051770637, -3.71365666039, 3.0715858349
5283, -1.01545299307, -3.24944957784, 3.18763760554
5284, -0.942809041582, -3.77123616633, 3.05719095842
5285, -0.824957911384, -3.29983164554, 3.17504208862
5286, -0.715859983526, -3.81791991214, 3.04552002196
5287, -0.626377485585, -3.34067992312, 3.16483001922
5288, -0.481543412343, -3.85234729874, 3.03691317531
5289, -0.4213504858, -3.3708038864, 3.1572990284
5290, -0.242091013068, -3.87345620908, 3.03163594773
5291, -0.211829636434, -3.38927418295, 3.15268145426
5292, 0, -3.88057000058, 3.02985749985
5293, 0, -3.39549875051, 3.15112531237
5294, 0.242091013068, -3.87345620908, 3.03163594773
5295, 0.211829636434, -3.38927418295, 3.15268145426
5296, 0.481543412343, -3.85234729874, 3.03691317531
5297, 0.4213504858, -3.3708038864, 3.1572990284
5298, 0.715859983526, -3.81791991214, 3.04552002196
5299, 0.626377485585, -3.34067992312, 3.16483001922
5300, 0.942809041582, -3.77123616633, 3.05719095842
5301, 0.824957911384, -3.29983164554, 3.17504208862
5302, 1.16051770637, -3.71365666039, 3.0715858349
5303, 1.01545299307, -3.24944957784, 3.18763760554
5304, 1.36752691752, -3.64673844671, 3.08831538832
5305, 1.19658605283, -3.19089614087, 3.20227596478
5306, 1.56280760212, -3.57213166199, 3.1069670845
5307, 1.36745665186, -3.12561520424, 3.21859619894
5308, 1.74574312189, -3.49148624378, 3.12712843906
5309, 1.52752523165, -3.0550504633, 3.23623738417
5310, 1.91608666348, -3.40637629064, 3.14840592734
5311, 1.67657583055, -2.98057925431, 3.25485518642
5312, 2.07390338946, -3.31824542314, 3.17043864422
5313, 1.81466546578, -2.90346474525, 3.27413381369
5314, 2.21950639814, -3.22837294275, 3.19290676431
5315, 1.94206809838, -2.82482632491, 3.29379341877
5316, 2.35339362166, -3.13785816221, 3.21553545945
5317, 2.05921941895, -2.74562589193, 3.31359352702
5318, 2.47619047619, -3.04761904762, 3.2380952381
5319, 2.16666666667, -2.66666666667, 3.33333333333
5320, 2.58860091572, -2.95840104653, 3.26039973837
5321, 2.26502580125, -2.58860091572, 3.35284977107
5322, 2.6913678241, -2.8707923457, 3.28230191357
5323, 2.35494684609, -2.51194330249, 3.37201417438
5324, 2.78524249529, -2.78524249529, 3.30368937618
5325, 2.43708718338, -2.43708718338, 3.39072820416
5326, -2.71052370872, -2.8912252893, 3.45789525826
5327, -2.37170824513, -2.52982212813, 3.52565835097
5328, -2.60818002386, -2.98077717013, 3.4411042806
5329, -2.28215752088, -2.60818002386, 3.51096624553
5330, -2.49607987583, -3.07209830872, 3.42398156712
5331, -2.18406989135, -2.68808602013, 3.49598387123
5332, -2.37344724688, -3.16459632918, 3.40663818828
5333, -2.07676634102, -2.76902178803, 3.48080841474
5334, -2.23954103366, -3.25751423078, 3.38921608173
5335, -1.95959840445, -2.85032495193, 3.46556407151
5336, -2.09369569036, -3.34991310458, 3.37189129289
5337, -1.83198372907, -2.93117396651, 3.45040488128
5338, -1.93537199005, -3.44066131565, 3.35487600332
5339, -1.6934504913, -3.01057865119, 3.4355165029
5340, -1.76421710854, -3.52843421709, 3.3384185843
5341, -1.54368996998, -3.08737993995, 3.42111626126
5342, -1.58013141435, -3.61172894709, 3.32280082242
5343, -1.38261498756, -3.16026282871, 3.40745071962
5344, -1.38333700249, -3.68889867331, 3.30833149875
5345, -1.21041987718, -3.22778633914, 3.39479006141
5346, -1.17444043903, -3.75820940489, 3.29533573658
5347, -1.02763538415, -3.28843322928, 3.38341876951
5348, -0.954479978035, -3.81791991214, 3.28414001647
5349, -0.835169980781, -3.34067992312, 3.37362251441
5350, -0.724946511996, -3.86638139731, 3.275053488
5351, -0.634328197997, -3.38308372265, 3.365671802
5352, -0.48776860868, -3.90214886944, 3.26834708698
5353, -0.426797532595, -3.41438026076, 3.35980370111
5354, -0.245255735794, -3.9240917727, 3.26423279262
5355, -0.21459876882, -3.43358030112, 3.35620369354
5356, 0, -3.93148874774, 3.2628458598
5357, 0, -3.44005265427, 3.35499012732
5358, 0.245255735794, -3.9240917727, 3.26423279262
5359, 0.21459876882, -3.43358030112, 3.35620369354
5360, 0.48776860868, -3.90214886944, 3.26834708698
5361, 0.426797532595, -3.41438026076, 3.35980370111
5362, 0.724946511996, -3.86638139731, 3.275053488
5363, 0.634328197997, -3.38308372265, 3.365671802
5364, 0.954479978035, -3.81791991214, 3.28414001647
5365, 0.835169980781, -3.34067992312, 3.37362251441
5366, 1.17444043903, -3.75820940489, 3.29533573658
5367, 1.02763538415, -3.28843322928, 3.38341876951
5368, 1.38333700249, -3.68889867331, 3.30833149875
5369, 1.21041987718, -3.22778633914, 3.39479006141
5370, 1.58013141435, -3.61172894709, 3.32280082242
5371, 1.38261498756, -3.16026282871, 3.40745071962
5372, 1.76421710854, -3.52843421709, 3.3384185843
5373, 1.54368996998, -3.08737993995, 3.42111626126
5374, 1.93537199005, -3.44066131565, 3.35487600332
5375, 1.6934504913, -3.01057865119, 3.4355165029
5376, 2.09369569036, -3.34991310458, 3.37189129289
5377, 1.83198372907, -2.93117396651, 3.45040488128
5378, 2.23954103366, -3.25751423078, 3.38921608173
5379, 1.95959840445, -2.85032495193, 3.46556407151
5380, 2.37344724688, -3.16459632918, 3.40663818828
5381, 2.07676634102, -2.76902178803, 3.48080841474
5382, 2.49607987583, -3.07209830872, 3.42398156712
5383, 2.18406989135, -2.68808602013, 3.49598387123
5384, 2.60818002386, -2.98077717013, 3.4411042806
5385, 2.28215752088, -2.60818002386, 3.51096624553
5386, 2.71052370872, -2.8912252893, 3.45789525826
5387, 2.37170824513, -2.52982212813, 3.52565835097
5388, 2.80389090777, -2.80389090777, 3.47427045479
5389, 2.45340454429, -2.45340454429, 3.53998664794
5390, -2.72445965512, -2.90609029879, 3.63673871265
5391, -2.38390219823, -2.54282901144, 3.68214637357
5392, -2.62244027243, -2.99707459706, 3.62536567537
5393, -2.29463523838, -2.62244027243, 3.67219496595
5394, -2.51058365784, -3.08994911735, 3.61375636033
5395, -2.19676070061, -2.70370547768, 3.66203681529
5396, -2.3880892565, -3.18411900867, 3.60198512392
5397, -2.08957809944, -2.78610413259, 3.65173698343
5398, -2.25418828615, -3.2788193253, 3.59014758434
5399, -1.97241475038, -2.86896690964, 3.6413791363
5400, -2.10818510678, -3.37309617085, 3.57836297864
5401, -1.84466196843, -2.95145914949, 3.63106760631
5402, -1.94950929987, -3.46579431087, 3.56677571114
5403, -1.70582063738, -3.03257002201, 3.62092874725
5404, -1.77777777778, -3.55555555556, 3.55555555556
5405, -1.55555555556, -3.11111111111, 3.61111111111
5406, -1.59286434717, -3.64083279353, 3.54489590081
5407, -1.39375630377, -3.18572869434, 3.60178391321
5408, -1.39497166493, -3.7199244398, 3.53500944502
5409, -1.22060020681, -3.25493388483, 3.5931332644
5410, -1.18469775552, -3.79103281766, 3.52612089779
5411, -1.03661053608, -3.31715371545, 3.58535578557
5412, -0.963086824686, -3.85234729874, 3.51845658766
5413, -0.8427009716, -3.3708038864, 3.5786495142
5414, -0.73165291302, -3.90214886944, 3.51223139132
5415, -0.640196298892, -3.41438026076, 3.57320246741
5416, -0.492365963917, -3.93892771134, 3.50763403608
5417, -0.430820218428, -3.44656174742, 3.56917978157
5418, -0.247593784236, -3.96150054778, 3.50481243153
5419, -0.216644561207, -3.4663129793, 3.56671087759
5420, 0, -3.96911150685, 3.50386106164
5421, 0, -3.4729725685, 3.56587842894
5422, 0.247593784236, -3.96150054778, 3.50481243153
5423, 0.216644561207, -3.4663129793, 3.56671087759
5424, 0.492365963917, -3.93892771134, 3.50763403608
5425, 0.430820218428, -3.44656174742, 3.56917978157
5426, 0.73165291302, -3.90214886944, 3.51223139132
5427, 0.640196298892, -3.41438026076, 3.57320246741
5428, 0.963086824686, -3.85234729874, 3.51845658766
5429, 0.8427009716, -3.3708038864, 3.5786495142
5430, 1.18469775552, -3.79103281766, 3.52612089779
5431, 1.03661053608, -3.31715371545, 3.58535578557
5432, 1.39497166493, -3.7199244398, 3.53500944502
5433, 1.22060020681, -3.25493388483, 3.5931332644
5434, 1.59286434717, -3.64083279353, 3.54489590081
5435, 1.39375630377, -3.18572869434, 3.60178391321
5436, 1.77777777778, -3.55555555556, 3.55555555556
5437, 1.55555555556, -3.11111111111, 3.61111111111
5438, 1.94950929987, -3.46579431087, 3.56677571114
5439, 1.70582063738, -3.03257002201, 3.62092874725
5440, 2.10818510678, -3.37309617085, 3.57836297864
5441, 1.84466196843, -2.95145914949, 3.63106760631
5442, 2.25418828615, -3.2788193253, 3.59014758434
5443, 1.97241475038, -2.86896690964, 3.6413791363
5444, 2.3880892565, -3.18411900867, 3.60198512392
5445, 2.08957809944, -2.78610413259, 3.65173698343
5446, 2.51058365784, -3.08994911735, 3.61375636033
5447, 2.19676070061, -2.70370547768, 3.66203681529
5448, 2.62244027243, -2.99707459706, 3.62536567537
5449, 2.29463523838, -2.62244027243, 3.67219496595
5450, 2.72445965512, -2.90609029879, 3.63673871265
5451, 2.38390219823, -2.54282901144, 3.68214637357
5452, 2.81744290024, -2.81744290024, 3.64781963747
5453, 2.46526253771, -2.46526253771, 3.69184218279
5454, -2.73292511205, -2.91512011952, 3.81780499253
5455, -2.39130947304, -2.55073010458, 3.84057936846
5456, -2.63110952012, -3.0069823087, 3.81206360571
5457, -2.3022208301, -2.63110952012, 3.83555565499
5458, -2.51940823218, -3.10081013191, 3.80619936676
5459, -2.20448220316, -2.71320886542, 3.83042444591
5460, -2.39700561331, -3.19600748441, 3.80024953222
5461, -2.09737991164, -2.79650654886, 3.8252183407
5462, -2.26311579944, -3.29180479919, 3.79426220005
5463, -1.98022632451, -2.88032919929, 3.81997942504
5464, -2.1170244961, -3.38723919376, 3.78829755039
5465, -1.85239643409, -2.96383429454, 3.81476035659
5466, -1.95814185559, -3.48114107661, 3.78242868271
5467, -1.71337412364, -3.04599844203, 3.80962509737
5468, -1.786065831, -3.57213166199, 3.77674177113
5469, -1.56280760212, -3.12561520424, 3.80464904973
5470, -1.60065346133, -3.65863648304, 3.77133521981
5471, -1.40057177866, -3.20130692266, 3.79991831733
5472, -1.40209497081, -3.73891992216, 3.76631750487
5473, -1.22683309946, -3.27155493189, 3.79552781676
5474, -1.19098266835, -3.81114453872, 3.76180346633
5475, -1.04210983481, -3.33475147138, 3.79157803304
5476, -0.96836405227, -3.87345620908, 3.75790898693
5477, -0.847318545736, -3.38927418295, 3.78817036357
5478, -0.735767207382, -3.9240917727, 3.75474426421
5479, -0.643796306459, -3.43358030112, 3.78540123118
5480, -0.495187568472, -3.96150054778, 3.75240621576
5481, -0.433289122413, -3.4663129793, 3.78335543879
5482, -0.249029122546, -3.98446596073, 3.75097087745
5483, -0.217900482228, -3.48640771564, 3.78209951777
5484, 0, -3.99221031393, 3.75048685538
5485, 0, -3.49318402469, 3.78167599846
5486, 0.249029122546, -3.98446596073, 3.75097087745
5487, 0.217900482228, -3.48640771564, 3.78209951777
5488, 0.495187568472, -3.96150054778, 3.75240621576
5489, 0.433289122413, -3.4663129793, 3.78335543879
5490, 0.735767207382, -3.9240917727, 3.75474426421
5491, 0.643796306459, -3.43358030112, 3.78540123118
5492, 0.96836405227, -3.87345620908, 3.75790898693
5493, 0.847318545736, -3.38927418295, 3.78817036357
5494, 1.19098266835, -3.81114453872, 3.76180346633
5495, 1.04210983481, -3.33475147138, 3.79157803304
5496, 1.40209497081, -3.73891992216, 3.76631750487
5497, 1.22683309946, -3.27155493189, 3.79552781676
5498, 1.60065346133, -3.65863648304, 3.77133521981
5499, 1.40057177866, -3.20130692266, 3.79991831733
5500, 1.786065831, -3.57213166199, 3.77674177113
5501, 1.56280760212, -3.12561520424, 3.80464904973
5502, 1.95814185559, -3.48114107661, 3.78242868271
5503, 1.71337412364, -3.04599844203, 3.80962509737
5504, 2.1170244961, -3.38723919376, 3.78829755039
5505, 1.85239643409, -2.96383429454, 3.81476035659
5506, 2.26311579944, -3.29180479919, 3.79426220005
5507, 1.98022632451, -2.88032919929, 3.81997942504
5508, 2.39700561331, -3.19600748441, 3.80024953222
5509, 2.09737991164, -2.79650654886, 3.8252183407
5510, 2.51940823218, -3.10081013191, 3.80619936676
5511, 2.20448220316, -2.71320886542, 3.83042444591
5512, 2.63110952012, -3.0069823087, 3.81206360571
5513, 2.3022208301, -2.63110952012, 3.83555565499
5514, 2.73292511205, -2.91512011952, 3.81780499253
5515, 2.39130947304, -2.55073010458, 3.84057936846
5516, 2.82566902841, -2.82566902841, 3.82339568572
5517, 2.47246039985, -2.47246039985, 3.84547122501
5518, -2.73576451553, -2.91814881656, 4
5519, -2.39379395108, -2.55338021449, 4
5520, -2.63401843147, -3.01030677883, 4
5521, -2.30476612754, -2.63401843147, 4
5522, -2.52237050038, -3.10445600047, 4
5523, -2.20707418783, -2.71639900041, 4
5524, -2.4, -3.2, 4
5525, -2.1, -2.8, 4
5526, -2.26611529155, -3.2961676968, 4
5527, -1.9828508801, -2.8841467347, 4
5528, -2.11999576001, -3.39199321602, 4
5529, -1.85499629001, -2.96799406402, 4
5530, -1.96104495853, -3.4863021485, 4
5531, -1.71591433871, -3.05051437994, 4
5532, -1.788854382, -3.577708764, 4
5533, -1.56524758425, -3.1304951685, 4
5534, -1.60327533608, -3.66462933961, 4
5535, -1.40286591907, -3.20655067216, 4
5536, -1.40449376635, -3.74531671028, 4
5537, -1.22893204556, -3.27715212149, 4
5538, -1.19309997254, -3.81791991214, 4
5539, -1.04396247598, -3.34067992312, 4
5540, -0.970142500145, -3.88057000058, 4
5541, -0.848874687627, -3.39549875051, 4
5542, -0.737154140201, -3.93148874774, 4
5543, -0.645009872676, -3.44005265427, 4
5544, -0.496138938357, -3.96911150685, 4
5545, -0.434121571062, -3.4729725685, 4
5546, -0.249513144621, -3.99221031393, 4
5547, -0.218324001543, -3.49318402469, 4
5548, 0, -4, 4
5549, 0, -3.5, 4
5550, 0.249513144621, -3.99221031393, 4
5551, 0.218324001543, -3.49318402469, 4
5552, 0.496138938357, -3.96911150685, 4
5553, 0.434121571062, -3.4729725685, 4
5554, 0.737154140201, -3.93148874774, 4
5555, 0.645009872676, -3.44005265427, 4
5556, 0.970142500145, -3.88057000058, 4
5557, 0.848874687627, -3.39549875051, 4
5558, 1.19309997254, -3.81791991214, 4
5559, 1.04396247598, -3.34067992312, 4
5560, 1.40449376635, -3.74531671028, 4
5561, 1.22893204556, -3.27715212149, 4
5562, 1.60327533608, -3.66462933961, 4
5563, 1.40286591907, -3.20655067216, 4
5564, 1.788854382, -3.577708764, 4
5565, 1.56524758425, -3.1304951685, 4
5566, 1.96104495853, -3.4863021485, 4
5567, 1.71591433871, -3.05051437994, 4
5568, 2.11999576001, -3.39199321602, 4
5569, 1.85499629001, -2.96799406402, 4
5570, 2.26611529155, -3.2961676968, 4
5571, 1.9828508801, -2.8841467347, 4
5572, 2.4, -3.2, 4
5573, 2.1, -2.8, 4
5574, 2.52237050038, -3.10445600047, 4
5575, 2.20707418783, -2.71639900041, 4
5576, 2.63401843147, -3.01030677883, 4
5577, 2.30476612754, -2.63401843147, 4
5578, 2.73576451553, -2.91814881656, 4
5579, 2.39379395108, -2.55338021449, 4
5580, 2.82842712475, -2.82842712475, 4
5581, 2.47487373415, -2.47487373415, 4
5582, 2.40867177438, -2.25812978848, 1.74187021152
5583, 2.10758780259, -1.97586356492, 2.02413643508
5584, 2.45971981448, -2.15225483767, 1.69401267393
5585, 2.15225483767, -1.88322298296, 1.98226108969
5586, 2.51028652977, -2.03960780544, 1.64660637834
5587, 2.19650071355, -1.78465682976, 1.94078058105
5588, 2.56, -1.92, 1.6
5589, 2.24, -1.68, 1.9
5590, 2.60844526701, -1.79330612107, 1.55458256218
5591, 2.28238960863, -1.56914285593, 1.86025974191
5592, 2.65516740366, -1.65947962729, 1.51078055906
5593, 2.32327147821, -1.45204467388, 1.82193298918
5594, 2.6996770599, -1.51856834619, 1.46905275634
5595, 2.36221742741, -1.32874730292, 1.7854211618
5596, 2.74145879602, -1.37072939801, 1.42988237873
5597, 2.39877644652, -1.19938822326, 1.75114708139
5598, 2.77998235368, -1.21624227974, 1.39376654342
5599, 2.43248455947, -1.06421199477, 1.71954572549
5600, 2.81471678165, -1.05551879312, 1.3612030172
5601, 2.46287718395, -0.92357894398, 1.69105264005
5602, 2.84514703664, -0.889108448949, 1.33267465315
5603, 2.48950365706, -0.77796989283, 1.66609032151
5604, 2.8707923457, -0.717698086426, 1.3086321759
5605, 2.51194330249, -0.627985825623, 1.64505315391
5606, 2.8912252893, -0.542104741743, 1.28947629128
5607, 2.52982212813, -0.474341649025, 1.62829175487
5608, 2.90609029879, -0.363261287349, 1.27554034488
5609, 2.54282901144, -0.317853626431, 1.61609780177
5610, 2.91512011952, -0.18219500747, 1.26707488795
5611, 2.55073010458, -0.159420631536, 1.60869052696
5612, 2.91814881656, 0, 1.26423548447
5613, 2.55338021449, 0, 1.60620604892
5614, 2.91512011952, 0.18219500747, 1.26707488795
5615, 2.55073010458, 0.159420631536, 1.60869052696
5616, 2.90609029879, 0.363261287349, 1.27554034488
5617, 2.54282901144, 0.317853626431, 1.61609780177
5618, 2.8912252893, 0.542104741743, 1.28947629128
5619, 2.52982212813, 0.474341649025, 1.62829175487
5620, 2.8707923457, 0.717698086426, 1.3086321759
5621, 2.51194330249, 0.627985825623, 1.64505315391
5622, 2.84514703664, 0.889108448949, 1.33267465315
5623, 2.48950365706, 0.77796989283, 1.66609032151
5624, 2.81471678165, 1.05551879312, 1.3612030172
5625, 2.46287718395, 0.92357894398, 1.69105264005
5626, 2.77998235368, 1.21624227974, 1.39376654342
5627, 2.43248455947, 1.06421199477, 1.71954572549
5628, 2.74145879602, 1.37072939801, 1.42988237873
5629, 2.39877644652, 1.19938822326, 1.75114708139
5630, 2.6996770599, 1.51856834619, 1.46905275634
5631, 2.36221742741, 1.32874730292, 1.7854211618
5632, 2.65516740366, 1.65947962729, 1.51078055906
5633, 2.32327147821, 1.45204467388, 1.82193298918
5634, 2.60844526701, 1.79330612107, 1.55458256218
5635, 2.28238960863, 1.56914285593, 1.86025974191
5636, 2.56, 1.92, 1.6
5637, 2.24, 1.68, 1.9
5638, 2.51028652977, 2.03960780544, 1.64660637834
5639, 2.19650071355, 1.78465682976, 1.94078058105
5640, 2.45971981448, 2.15225483767, 1.69401267393
5641, 2.15225483767, 1.88322298296, 1.98226108969
5642, 2.40867177438, 2.25812978848, 1.74187021152
5643, 2.10758780259, 1.97586356492, 2.02413643508
5644, 2.35747029979, 2.35747029979, 1.78987159395
5645, 2.06278651231, 2.06278651231, 2.06613764471
5646, 2.45971981448, -2.30598732607, 1.84774516233
5647, 2.15225483767, -2.01773891031, 2.11677701704
5648, 2.51415744422, -2.19988776369, 1.80011223631
5649, 2.19988776369, -1.92490179323, 2.07509820677
5650, 2.5682315325, -2.08668812015, 1.75279740907
5651, 2.24720259093, -1.82585210513, 2.03369773293
5652, 2.62154214566, -1.96615660925, 1.70615062255
5653, 2.29384937745, -1.72038703309, 1.99288179473
5654, 2.67363835612, -1.83812636984, 1.66056643839
5655, 2.33943356161, -1.60836057361, 1.95299563359
5656, 2.72402089843, -1.70251306152, 1.61648171388
5657, 2.38351828612, -1.48969892883, 1.91442149964
5658, 2.77214772367, -1.55933309457, 1.57437074178
5659, 2.42562925822, -1.36441645775, 1.87757439906
5660, 2.81744290024, -1.40872145012, 1.53473746229
5661, 2.46526253771, -1.23263126886, 1.8428952795
5662, 2.8593091303, -1.2509477445, 1.49810451099
5663, 2.50189548901, -1.09457927644, 1.81084144712
5664, 2.89714387336, -1.08642895251, 1.46499911081
5665, 2.53500088919, -0.950625333446, 1.78187422196
5666, 2.93035869757, -0.915737092991, 1.43593613962
5667, 2.56406386038, -0.801269956367, 1.75644412217
5668, 2.95840104653, -0.739600261634, 1.41139908428
5669, 2.58860091572, -0.647150228929, 1.73497419875
5670, 2.98077717013, -0.558895719399, 1.39181997614
5671, 2.60818002386, -0.489033754474, 1.71784247912
5672, 2.99707459706, -0.374634324633, 1.37755972757
5673, 2.62244027243, -0.327805034054, 1.70536476162
5674, 3.0069823087, -0.187936394294, 1.36889047988
5675, 2.63110952012, -0.164444345007, 1.6977791699
5676, 3.01030677883, 0, 1.36598156853
5677, 2.63401843147, 0, 1.69523387246
5678, 3.0069823087, 0.187936394294, 1.36889047988
5679, 2.63110952012, 0.164444345007, 1.6977791699
5680, 2.99707459706, 0.374634324633, 1.37755972757
5681, 2.62244027243, 0.327805034054, 1.70536476162
5682, 2.98077717013, 0.558895719399, 1.39181997614
5683, 2.60818002386, 0.489033754474, 1.71784247912
5684, 2.95840104653, 0.739600261634, 1.41139908428
5685, 2.58860091572, 0.647150228929, 1.73497419875
5686, 2.93035869757, 0.915737092991, 1.43593613962
5687, 2.56406386038, 0.801269956367, 1.75644412217
5688, 2.89714387336, 1.08642895251, 1.46499911081
5689, 2.53500088919, 0.950625333446, 1.78187422196
5690, 2.8593091303, 1.2509477445, 1.49810451099
5691, 2.50189548901, 1.09457927644, 1.81084144712
5692, 2.81744290024, 1.40872145012, 1.53473746229
5693, 2.46526253771, 1.23263126886, 1.8428952795
5694, 2.77214772367, 1.55933309457, 1.57437074178
5695, 2.42562925822, 1.36441645775, 1.87757439906
5696, 2.72402089843, 1.70251306152, 1.61648171388
5697, 2.38351828612, 1.48969892883, 1.91442149964
5698, 2.67363835612, 1.83812636984, 1.66056643839
5699, 2.33943356161, 1.60836057361, 1.95299563359
5700, 2.62154214566, 1.96615660925, 1.70615062255
5701, 2.29384937745, 1.72038703309, 1.99288179473
5702, 2.5682315325, 2.08668812015, 1.75279740907
5703, 2.24720259093, 1.82585210513, 2.03369773293
5704, 2.51415744422, 2.19988776369, 1.80011223631
5705, 2.19988776369, 1.92490179323, 2.07509820677
5706, 2.45971981448, 2.30598732607, 1.84774516233
5707, 2.15225483767, 2.01773891031, 2.11677701704
5708, 2.40526728961, 2.40526728961, 1.89539112159
5709, 2.10460887841, 2.10460887841, 2.15846723139
5710, 2.51028652977, -2.35339362166, 1.96039219456
5711, 2.19650071355, -2.05921941895, 2.21534317024
5712, 2.5682315325, -2.24720259093, 1.91331187985
5713, 2.24720259093, -1.96630226707, 2.17414789487
5714, 2.62595180756, -2.13358584364, 1.86641415636
5715, 2.29770783161, -1.86688761319, 2.13311238681
5716, 2.68301957216, -2.01226467912, 1.82004659762
5717, 2.34764212564, -1.76073159423, 2.09254077292
5718, 2.73894715207, -1.88302616705, 1.77460543894
5719, 2.39657875806, -1.64764789617, 2.05277975908
5720, 2.79318899502, -1.74574312189, 1.73053394155
5721, 2.44404037064, -1.52752523165, 2.01421719885
5722, 2.84514703664, -1.60039520811, 1.68831803273
5723, 2.48950365706, -1.40034580709, 1.97727827864
5724, 2.89418004254, -1.44709002127, 1.64847871544
5725, 2.53240753722, -1.26620376861, 1.94241887601
5726, 2.93961735792, -1.28608259409, 1.61156089669
5727, 2.57216518818, -1.12532226983, 1.91011578461
5728, 2.98077717013, -1.1177914388, 1.57811854927
5729, 2.60818002386, -0.978067508949, 1.88085373061
5730, 3.01698893306, -0.942809041582, 1.54869649189
5731, 2.63986531643, -0.824957911384, 1.8551094304
5732, 3.04761904762, -0.761904761905, 1.52380952381
5733, 2.66666666667, -0.666666666667, 1.83333333333
5734, 3.07209830872, -0.576018432885, 1.50392012417
5735, 2.68808602013, -0.504016128774, 1.81593010865
5736, 3.08994911735, -0.386243639668, 1.48941634216
5737, 2.70370547768, -0.33796318471, 1.80323929939
5738, 3.10081013191, -0.193800633245, 1.48059176782
5739, 2.71320886542, -0.169575554089, 1.79551779684
5740, 3.10445600047, 0, 1.47762949962
5741, 2.71639900041, 0, 1.79292581217
5742, 3.10081013191, 0.193800633245, 1.48059176782
5743, 2.71320886542, 0.169575554089, 1.79551779684
5744, 3.08994911735, 0.386243639668, 1.48941634216
5745, 2.70370547768, 0.33796318471, 1.80323929939
5746, 3.07209830872, 0.576018432885, 1.50392012417
5747, 2.68808602013, 0.504016128774, 1.81593010865
5748, 3.04761904762, 0.761904761905, 1.52380952381
5749, 2.66666666667, 0.666666666667, 1.83333333333
5750, 3.01698893306, 0.942809041582, 1.54869649189
5751, 2.63986531643, 0.824957911384, 1.8551094304
5752, 2.98077717013, 1.1177914388, 1.57811854927
5753, 2.60818002386, 0.978067508949, 1.88085373061
5754, 2.93961735792, 1.28608259409, 1.61156089669
5755, 2.57216518818, 1.12532226983, 1.91011578461
5756, 2.89418004254, 1.44709002127, 1.64847871544
5757, 2.53240753722, 1.26620376861, 1.94241887601
5758, 2.84514703664, 1.60039520811, 1.68831803273
5759, 2.48950365706, 1.40034580709, 1.97727827864
5760, 2.79318899502, 1.74574312189, 1.73053394155
5761, 2.44404037064, 1.52752523165, 2.01421719885
5762, 2.73894715207, 1.88302616705, 1.77460543894
5763, 2.39657875806, 1.64764789617, 2.05277975908
5764, 2.68301957216, 2.01226467912, 1.82004659762
5765, 2.34764212564, 1.76073159423, 2.09254077292
5766, 2.62595180756, 2.13358584364, 1.86641415636
5767, 2.29770783161, 1.86688761319, 2.13311238681
5768, 2.5682315325, 2.24720259093, 1.91331187985
5769, 2.24720259093, 1.96630226707, 2.17414789487
5770, 2.51028652977, 2.35339362166, 1.96039219456
5771, 2.19650071355, 2.05921941895, 2.21534317024
5772, 2.45248532877, 2.45248532877, 2.00735567038
5773, 2.14592466267, 2.14592466267, 2.25643621158
5774, 2.56, -2.4, 2.08
5775, 2.24, -2.1, 2.32
5776, 2.62154214566, -2.29384937745, 2.03384339075
5777, 2.29384937745, -2.00711820527, 2.27961296691
5778, 2.68301957216, -2.17995340238, 1.98773532088
5779, 2.34764212564, -1.90745922708, 2.23926840577
5780, 2.74397736228, -2.05798302171, 1.94201697829
5781, 2.400980192, -1.800735144, 2.199264856
5782, 2.80389090777, -1.92767499909, 1.89708181918
5783, 2.45340454429, -1.6867156242, 2.15994659178
5784, 2.8621670112, -1.788854382, 1.8533747416
5785, 2.5043961348, -1.56524758425, 2.1217028989
5786, 2.91814881656, -1.64145870932, 1.81138838758
5787, 2.55338021449, -1.43627637065, 2.08496483913
5788, 2.97112541083, -1.48556270542, 1.77165594188
5789, 2.59973473448, -1.29986736724, 2.05019894914
5790, 3.02034674037, -1.32140169891, 1.73473994472
5791, 2.64280339782, -1.15622648655, 2.01789745163
5792, 3.06504411271, -1.14939154227, 1.70121691547
5793, 2.68191359862, -1.00571759948, 1.98856480104
5794, 3.10445600047, -0.970142500145, 1.67165799965
5795, 2.71639900041, -0.848874687627, 1.96270074969
5796, 3.13785816221, -0.784464540553, 1.64660637834
5797, 2.74562589193, -0.686406472984, 1.94078058105
5798, 3.16459632918, -0.593361811721, 1.62655275312
5799, 2.76902178803, -0.519191585256, 1.92323365898
5800, 3.18411900867, -0.398014876084, 1.6119107435
5801, 2.78610413259, -0.348263016573, 1.91042190056
5802, 3.19600748441, -0.199750467776, 1.60299438669
5803, 2.79650654886, -0.174781659304, 1.90262008836
5804, 3.2, 0, 1.6
5805, 2.8, 0, 1.9
5806, 3.19600748441, 0.199750467776, 1.60299438669
5807, 2.79650654886, 0.174781659304, 1.90262008836
5808, 3.18411900867, 0.398014876084, 1.6119107435
5809, 2.78610413259, 0.348263016573, 1.91042190056
5810, 3.16459632918, 0.593361811721, 1.62655275312
5811, 2.76902178803, 0.519191585256, 1.92323365898
5812, 3.13785816221, 0.784464540553, 1.64660637834
5813, 2.74562589193, 0.686406472984, 1.94078058105
5814, 3.10445600047, 0.970142500145, 1.67165799965
5815, 2.71639900041, 0.848874687627, 1.96270074969
5816, 3.06504411271, 1.14939154227, 1.70121691547
5817, 2.68191359862, 1.00571759948, 1.98856480104
5818, 3.02034674037, 1.32140169891, 1.73473994472
5819, 2.64280339782, 1.15622648655, 2.01789745163
5820, 2.97112541083, 1.48556270542, 1.77165594188
5821, 2.59973473448, 1.29986736724, 2.05019894914
5822, 2.91814881656, 1.64145870932, 1.81138838758
5823, 2.55338021449, 1.43627637065, 2.08496483913
5824, 2.8621670112, 1.788854382, 1.8533747416
5825, 2.5043961348, 1.56524758425, 2.1217028989
5826, 2.80389090777, 1.92767499909, 1.89708181918
5827, 2.45340454429, 1.6867156242, 2.15994659178
5828, 2.74397736228, 2.05798302171, 1.94201697829
5829, 2.400980192, 1.800735144, 2.199264856
5830, 2.68301957216, 2.17995340238, 1.98773532088
5831, 2.34764212564, 1.90745922708, 2.23926840577
5832, 2.62154214566, 2.29384937745, 2.03384339075
5833, 2.29384937745, 2.00711820527, 2.27961296691
5834, 2.56, 2.4, 2.08
5835, 2.24, 2.1, 2.32
5836, 2.49878019022, 2.49878019022, 2.12591485734
5837, 2.18643266644, 2.18643266644, 2.36017550017
5838, 2.60844526701, -2.44541743782, 2.20669387893
5839, 2.28238960863, -2.13974025809, 2.43085714407
5840, 2.67363835612, -2.33943356161, 2.16187363016
5841, 2.33943356161, -2.04700436641, 2.39163942639
5842, 2.73894715207, -2.22539456106, 2.11697383295
5843, 2.39657875806, -1.94722024092, 2.35235210383
5844, 2.80389090777, -2.10291818082, 2.07232500091
5845, 2.45340454429, -1.84005340822, 2.3132843758
5846, 2.86790857567, -1.97168714577, 2.02831285423
5847, 2.50942000371, -1.72522625255, 2.27477374745
5848, 2.93035869757, -1.83147418598, 1.98537839542
5849, 2.56406386038, -1.60253991273, 2.23720609599
5850, 2.9905236065, -1.68216952866, 1.94401502053
5851, 2.61670815569, -1.47189833758, 2.20101314296
5852, 3.04761904762, -1.52380952381, 1.90476190476
5853, 2.66666666667, -1.33333333333, 2.16666666667
5854, 3.10081013191, -1.35660443271, 1.86819303431
5855, 2.71320886542, -1.18702887862, 2.13466890502
5856, 3.14923412035, -1.18096279513, 1.83490154226
5857, 2.75557985531, -1.03334244574, 2.10553884948
5858, 3.19202987554, -0.997509336108, 1.80547946056
5859, 2.7930261411, -0.872820669094, 2.07979452799
5860, 3.22837294275, -0.807093235689, 1.78049360186
5861, 2.82482632491, -0.706206581227, 2.05793190162
5862, 3.25751423078, -0.610783918271, 1.76045896634
5863, 2.85032495193, -0.534435928487, 2.04040159555
5864, 3.2788193253, -0.409852415663, 1.74581171385
5865, 2.86896690964, -0.358620863705, 2.02758524962
5866, 3.29180479919, -0.205737799949, 1.73688420056
5867, 2.88032919929, -0.180020574956, 2.01977367549
5868, 3.2961676968, 0, 1.73388470845
5869, 2.8841467347, 0, 2.0171491199
5870, 3.29180479919, 0.205737799949, 1.73688420056
5871, 2.88032919929, 0.180020574956, 2.01977367549
5872, 3.2788193253, 0.409852415663, 1.74581171385
5873, 2.86896690964, 0.358620863705, 2.02758524962
5874, 3.25751423078, 0.610783918271, 1.76045896634
5875, 2.85032495193, 0.534435928487, 2.04040159555
5876, 3.22837294275, 0.807093235689, 1.78049360186
5877, 2.82482632491, 0.706206581227, 2.05793190162
5878, 3.19202987554, 0.997509336108, 1.80547946056
5879, 2.7930261411, 0.872820669094, 2.07979452799
5880, 3.14923412035, 1.18096279513, 1.83490154226
5881, 2.75557985531, 1.03334244574, 2.10553884948
5882, 3.10081013191, 1.35660443271, 1.86819303431
5883, 2.71320886542, 1.18702887862, 2.13466890502
5884, 3.04761904762, 1.52380952381, 1.90476190476
5885, 2.66666666667, 1.33333333333, 2.16666666667
5886, 2.9905236065, 1.68216952866, 1.94401502053
5887, 2.61670815569, 1.47189833758, 2.20101314296
5888, 2.93035869757, 1.83147418598, 1.98537839542
5889, 2.56406386038, 1.60253991273, 2.23720609599
5890, 2.86790857567, 1.97168714577, 2.02831285423
5891, 2.50942000371, 1.72522625255, 2.27477374745
5892, 2.80389090777, 2.10291818082, 2.07232500091
5893, 2.45340454429, 1.84005340822, 2.3132843758
5894, 2.73894715207, 2.22539456106, 2.11697383295
5895, 2.39657875806, 1.94722024092, 2.35235210383
5896, 2.67363835612, 2.33943356161, 2.16187363016
5897, 2.33943356161, 2.04700436641, 2.39163942639
5898, 2.60844526701, 2.44541743782, 2.20669387893
5899, 2.28238960863, 2.13974025809, 2.43085714407
5900, 2.54377162725, 2.54377162725, 2.25115700626
5901, 2.22580017385, 2.22580017385, 2.46976238048
5902, 2.65516740366, -2.48921944094, 2.34052037271
5903, 2.32327147821, -2.17806701082, 2.54795532612
5904, 2.72402089843, -2.38351828612, 2.29748693848
5905, 2.38351828612, -2.08557850036, 2.51030107117
5906, 2.79318899502, -2.26946605845, 2.25425687811
5907, 2.44404037064, -1.98578280115, 2.47247476835
5908, 2.8621670112, -2.1466252584, 2.211145618
5909, 2.5043961348, -1.8782971011, 2.43475241575
5910, 2.93035869757, -2.01462160458, 2.16852581402
5911, 2.56406386038, -1.76279390401, 2.39746008727
5912, 2.99707459706, -1.87317162316, 2.12682837684
5913, 2.62244027243, -1.63902517027, 2.36097482973
5914, 3.0615351887, -1.72211354365, 2.08654050706
5915, 2.67884329012, -1.50684935069, 2.32572294368
5916, 3.12288023344, -1.56144011672, 2.0481998541
5917, 2.73252020426, -1.36626010213, 2.29217487234
5918, 3.180185568, -1.391331186, 2.01238402
5919, 2.782662372, -1.21741478775, 2.2608360175
5920, 3.23248814257, -1.21218305346, 1.9796949109
5921, 2.82842712475, -1.06066017178, 2.23223304703
5922, 3.2788193253, -1.02463103916, 1.95073792169
5923, 2.86896690964, -0.896552159262, 2.20689568148
5924, 3.31824542314, -0.829561355784, 1.92609661054
5925, 2.90346474525, -0.725866186311, 2.18533453422
5926, 3.34991310458, -0.628108707108, 1.90630430964
5927, 2.93117396651, -0.54959511872, 2.16801627093
5928, 3.37309617085, -0.421637021356, 1.89181489322
5929, 2.95145914949, -0.368932393686, 2.15533803157
5930, 3.38723919376, -0.21170244961, 1.8829755039
5931, 2.96383429454, -0.185239643409, 2.14760356591
5932, 3.39199321602, 0, 1.88000423999
5933, 2.96799406402, 0, 2.14500370999
5934, 3.38723919376, 0.21170244961, 1.8829755039
5935, 2.96383429454, 0.185239643409, 2.14760356591
5936, 3.37309617085, 0.421637021356, 1.89181489322
5937, 2.95145914949, 0.368932393686, 2.15533803157
5938, 3.34991310458, 0.628108707108, 1.90630430964
5939, 2.93117396651, 0.54959511872, 2.16801627093
5940, 3.31824542314, 0.829561355784, 1.92609661054
5941, 2.90346474525, 0.725866186311, 2.18533453422
5942, 3.2788193253, 1.02463103916, 1.95073792169
5943, 2.86896690964, 0.896552159262, 2.20689568148
5944, 3.23248814257, 1.21218305346, 1.9796949109
5945, 2.82842712475, 1.06066017178, 2.23223304703
5946, 3.180185568, 1.391331186, 2.01238402
5947, 2.782662372, 1.21741478775, 2.2608360175
5948, 3.12288023344, 1.56144011672, 2.0481998541
5949, 2.73252020426, 1.36626010213, 2.29217487234
5950, 3.0615351887, 1.72211354365, 2.08654050706
5951, 2.67884329012, 1.50684935069, 2.32572294368
5952, 2.99707459706, 1.87317162316, 2.12682837684
5953, 2.62244027243, 1.63902517027, 2.36097482973
5954, 2.93035869757, 2.01462160458, 2.16852581402
5955, 2.56406386038, 1.76279390401, 2.39746008727
5956, 2.8621670112, 2.1466252584, 2.211145618
5957, 2.5043961348, 1.8782971011, 2.43475241575
5958, 2.79318899502, 2.26946605845, 2.25425687811
5959, 2.44404037064, 1.98578280115, 2.47247476835
5960, 2.72402089843, 2.38351828612, 2.29748693848
5961, 2.38351828612, 2.08557850036, 2.51030107117
5962, 2.65516740366, 2.48921944094, 2.34052037271
5963, 2.32327147821, 2.17806701082, 2.54795532612
5964, 2.58704666705, 2.58704666705, 2.38309583309
5965, 2.26366583367, 2.26366583367, 2.58520885395
5966, 2.6996770599, -2.53094724366, 2.48143165381
5967, 2.36221742741, -2.2145788382, 2.67125269708
5968, 2.77214772367, -2.42562925822, 2.44066690543
5969, 2.42562925822, -2.12242560094, 2.63558354225
5970, 2.84514703664, -2.31168196727, 2.39960479189
5971, 2.48950365706, -2.02272172136, 2.59965419291
5972, 2.91814881656, -2.18861161242, 2.35854129068
5973, 2.55338021449, -1.91503516087, 2.56372362935
5974, 2.9905236065, -2.05598497947, 2.31783047134
5975, 2.61670815569, -1.79898685704, 2.52810166242
5976, 3.0615351887, -1.91345949294, 2.27788645635
5977, 2.67884329012, -1.67427705632, 2.49315064931
5978, 3.13034232348, -1.76081755696, 2.23918244304
5979, 2.73904953305, -1.54071536234, 2.45928463766
5980, 3.19600748441, -1.5980037422, 2.20224579002
5981, 2.79650654886, -1.39825327443, 2.42696506627
5982, 3.25751423078, -1.42516247597, 2.16764824519
5983, 2.85032495193, -1.24701716647, 2.39669221454
5984, 3.3137943877, -1.24267289539, 2.13599065692
5985, 2.89957008924, -1.08733878346, 2.3689918248
5986, 3.36376531986, -1.05117666246, 2.10788200758
5987, 2.94329465487, -0.919779579648, 2.34439675663
5988, 3.40637629064, -0.85159407266, 2.08391333652
5989, 2.98057925431, -0.745144813577, 2.32342416945
5990, 3.44066131565, -0.645123996685, 2.06462800995
5991, 3.01057865119, -0.564483497099, 2.3065495087
5992, 3.46579431087, -0.433224288859, 2.05049070013
5993, 3.03257002201, -0.379071252752, 2.29417936262
5994, 3.48114107661, -0.217571317288, 2.04185814441
5995, 3.04599844203, -0.190374902627, 2.28662587636
5996, 3.4863021485, 0, 2.03895504147
5997, 3.05051437994, 0, 2.28408566129
5998, 3.48114107661, 0.217571317288, 2.04185814441
5999, 3.04599844203, 0.190374902627, 2.28662587636
6000, 3.46579431087, 0.433224288859, 2.05049070013
6001, 3.03257002201, 0.379071252752, 2.29417936262
6002, 3.44066131565, 0.645123996685, 2.06462800995
6003, 3.01057865119, 0.564483497099, 2.3065495087
6004, 3.40637629064, 0.85159407266, 2.08391333652
6005, 2.98057925431, 0.745144813577, 2.32342416945
6006, 3.36376531986, 1.05117666246, 2.10788200758
6007, 2.94329465487, 0.919779579648, 2.34439675663
6008, 3.3137943877, 1.24267289539, 2.13599065692
6009, 2.89957008924, 1.08733878346, 2.3689918248
6010, 3.25751423078, 1.42516247597, 2.16764824519
6011, 2.85032495193, 1.24701716647, 2.39669221454
6012, 3.19600748441, 1.5980037422, 2.20224579002
6013, 2.79650654886, 1.39825327443, 2.42696506627
6014, 3.13034232348, 1.76081755696, 2.23918244304
6015, 2.73904953305, 1.54071536234, 2.45928463766
6016, 3.0615351887, 1.91345949294, 2.27788645635
6017, 2.67884329012, 1.67427705632, 2.49315064931
6018, 2.9905236065, 2.05598497947, 2.31783047134
6019, 2.61670815569, 1.79898685704, 2.52810166242
6020, 2.91814881656, 2.18861161242, 2.35854129068
6021, 2.55338021449, 1.91503516087, 2.56372362935
6022, 2.84514703664, 2.31168196727, 2.39960479189
6023, 2.48950365706, 2.02272172136, 2.59965419291
6024, 2.77214772367, 2.42562925822, 2.44066690543
6025, 2.42562925822, 2.12242560094, 2.63558354225
6026, 2.6996770599, 2.53094724366, 2.48143165381
6027, 2.36221742741, 2.2145788382, 2.67125269708
6028, 2.62816499953, 2.62816499953, 2.52165718776
6029, 2.29964437459, 2.29964437459, 2.70645003929
6030, 2.74145879602, -2.57011762127, 2.62927060199
6031, 2.39877644652, -2.24885291861, 2.80061177674
6032, 2.81744290024, -2.46526253771, 2.59127854988
6033, 2.46526253771, -2.1571047205, 2.76736873114
6034, 2.89418004254, -2.35152128456, 2.55290997873
6035, 2.53240753722, -2.05758112399, 2.73379623139
6036, 2.97112541083, -2.22834405812, 2.51443729458
6037, 2.59973473448, -1.94980105086, 2.70013263276
6038, 3.04761904762, -2.09523809524, 2.47619047619
6039, 2.66666666667, -1.83333333333, 2.66666666667
6040, 3.12288023344, -1.9518001459, 2.43855988328
6041, 2.73252020426, -1.70782512766, 2.63373989787
6042, 3.19600748441, -1.79775420998, 2.4019962578
6043, 2.79650654886, -1.57303493373, 2.60174672557
6044, 3.26598632371, -1.63299316186, 2.36700683814
6045, 2.85773803325, -1.42886901662, 2.57113098338
6046, 3.33170692029, -1.45762177763, 2.33414653985
6047, 2.91524355525, -1.27541905542, 2.54237822237
6048, 3.39199321602, -1.27199745601, 2.30400339199
6049, 2.96799406402, -1.11299777401, 2.51600296799
6050, 3.44564417317, -1.07676380412, 2.27717791341
6051, 3.01493865153, -0.942168328602, 2.49253067424
6052, 3.49148624378, -0.872871560944, 2.25425687811
6053, 3.0550504633, -0.763762615826, 2.47247476835
6054, 3.52843421709, -0.661581415704, 2.23578289146
6055, 3.08737993995, -0.578883738741, 2.45631003002
6056, 3.55555555556, -0.444444444444, 2.22222222222
6057, 3.11111111111, -0.388888888889, 2.44444444444
6058, 3.57213166199, -0.223258228874, 2.213934169
6059, 3.12561520424, -0.195350950265, 2.43719239788
6060, 3.577708764, 0, 2.211145618
6061, 3.1304951685, 0, 2.43475241575
6062, 3.57213166199, 0.223258228874, 2.213934169
6063, 3.12561520424, 0.195350950265, 2.43719239788
6064, 3.55555555556, 0.444444444444, 2.22222222222
6065, 3.11111111111, 0.388888888889, 2.44444444444
6066, 3.52843421709, 0.661581415704, 2.23578289146
6067, 3.08737993995, 0.578883738741, 2.45631003002
6068, 3.49148624378, 0.872871560944, 2.25425687811
6069, 3.0550504633, 0.763762615826, 2.47247476835
6070, 3.44564417317, 1.07676380412, 2.27717791341
6071, 3.01493865153, 0.942168328602, 2.49253067424
6072, 3.39199321602, 1.27199745601, 2.30400339199
6073, 2.96799406402, 1.11299777401, 2.51600296799
6074, 3.33170692029, 1.45762177763, 2.33414653985
6075, 2.91524355525, 1.27541905542, 2.54237822237
6076, 3.26598632371, 1.63299316186, 2.36700683814
6077, 2.85773803325, 1.42886901662, 2.57113098338
6078, 3.19600748441, 1.79775420998, 2.4019962578
6079, 2.79650654886, 1.57303493373, 2.60174672557
6080, 3.12288023344, 1.9518001459, 2.43855988328
6081, 2.73252020426, 1.70782512766, 2.63373989787
6082, 3.04761904762, 2.09523809524, 2.47619047619
6083, 2.66666666667, 1.83333333333, 2.66666666667
6084, 2.97112541083, 2.22834405812, 2.51443729458
6085, 2.59973473448, 1.94980105086, 2.70013263276
6086, 2.89418004254, 2.35152128456, 2.55290997873
6087, 2.53240753722, 2.05758112399, 2.73379623139
6088, 2.81744290024, 2.46526253771, 2.59127854988
6089, 2.46526253771, 2.1571047205, 2.76736873114
6090, 2.74145879602, 2.57011762127, 2.62927060199
6091, 2.39877644652, 2.24885291861, 2.80061177674
6092, 2.66666666667, 2.66666666667, 2.66666666667
6093, 2.33333333333, 2.33333333333, 2.83333333333
6094, 2.77998235368, -2.60623345658, 2.78375772026
6095, 2.43248455947, -2.28045427451, 2.93578800523
6096, 2.8593091303, -2.50189548901, 2.7490522555
6097, 2.50189548901, -2.18915855288, 2.90542072356
6098, 2.93961735792, -2.38843910331, 2.71391740591
6099, 2.57216518818, -2.08988421539, 2.87467773017
6100, 3.02034674037, -2.26526005528, 2.67859830109
6101, 2.64280339782, -1.98210254837, 2.84377351345
6102, 3.10081013191, -2.13180696569, 2.64339556729
6103, 2.71320886542, -1.86533109498, 2.81297112138
6104, 3.180185568, -1.98761598, 2.608668814
6105, 2.782662372, -1.7391639825, 2.78258521225
6106, 3.25751423078, -1.83235175481, 2.57483752403
6107, 2.85032495193, -1.60330778546, 2.75298283353
6108, 3.33170692029, -1.66585346015, 2.54237822237
6109, 2.91524355525, -1.45762177763, 2.72458094458
6110, 3.4015616221, -1.48818320967, 2.51181679033
6111, 2.97636641934, -1.30216030846, 2.69783969154
6112, 3.46579431087, -1.29967286658, 2.48371498899
6113, 3.03257002201, -1.13721375826, 2.67325061537
6114, 3.5230840484, -1.10096376513, 2.45865072882
6115, 3.08269854235, -0.963343294486, 2.65131938772
6116, 3.57213166199, -0.893032915498, 2.43719239788
6117, 3.12561520424, -0.78140380106, 2.63254334814
6118, 3.61172894709, -0.67719917758, 2.41986858565
6119, 3.16026282871, -0.592549280382, 2.61738501244
6120, 3.64083279353, -0.455104099191, 2.40713565283
6121, 3.18572869434, -0.398216086792, 2.60624369623
6122, 3.65863648304, -0.22866478019, 2.39934653867
6123, 3.20130692266, -0.200081682666, 2.59942822134
6124, 3.66462933961, 0, 2.39672466392
6125, 3.20655067216, 0, 2.59713408093
6126, 3.65863648304, 0.22866478019, 2.39934653867
6127, 3.20130692266, 0.200081682666, 2.59942822134
6128, 3.64083279353, 0.455104099191, 2.40713565283
6129, 3.18572869434, 0.398216086792, 2.60624369623
6130, 3.61172894709, 0.67719917758, 2.41986858565
6131, 3.16026282871, 0.592549280382, 2.61738501244
6132, 3.57213166199, 0.893032915498, 2.43719239788
6133, 3.12561520424, 0.78140380106, 2.63254334814
6134, 3.5230840484, 1.10096376513, 2.45865072882
6135, 3.08269854235, 0.963343294486, 2.65131938772
6136, 3.46579431087, 1.29967286658, 2.48371498899
6137, 3.03257002201, 1.13721375826, 2.67325061537
6138, 3.4015616221, 1.48818320967, 2.51181679033
6139, 2.97636641934, 1.30216030846, 2.69783969154
6140, 3.33170692029, 1.66585346015, 2.54237822237
6141, 2.91524355525, 1.45762177763, 2.72458094458
6142, 3.25751423078, 1.83235175481, 2.57483752403
6143, 2.85032495193, 1.60330778546, 2.75298283353
6144, 3.180185568, 1.98761598, 2.608668814
6145, 2.782662372, 1.7391639825, 2.78258521225
6146, 3.10081013191, 2.13180696569, 2.64339556729
6147, 2.71320886542, 1.86533109498, 2.81297112138
6148, 3.02034674037, 2.26526005528, 2.67859830109
6149, 2.64280339782, 1.98210254837, 2.84377351345
6150, 2.93961735792, 2.38843910331, 2.71391740591
6151, 2.57216518818, 2.08988421539, 2.87467773017
6152, 2.8593091303, 2.50189548901, 2.7490522555
6153, 2.50189548901, 2.18915855288, 2.90542072356
6154, 2.77998235368, 2.60623345658, 2.78375772026
6155, 2.43248455947, 2.28045427451, 2.93578800523
6156, 2.70208211789, 2.70208211789, 2.81783907342
6157, 2.36432185316, 2.36432185316, 2.96560918924
6158, 2.81471678165, -2.6387969828, 2.94448120688
6159, 2.46287718395, -2.30894735995, 3.07642105602
6160, 2.89714387336, -2.53500088919, 2.91357104749
6161, 2.53500088919, -2.21812577804, 3.04937466655
6162, 2.98077717013, -2.42188145073, 2.8822085612
6163, 2.60818002386, -2.11914626939, 3.02193249105
6164, 3.06504411271, -2.29878308453, 2.85060845773
6165, 2.68191359862, -2.01143519896, 2.99428240052
6166, 3.14923412035, -2.16509845774, 2.81903720487
6167, 2.75557985531, -1.89446115052, 2.96665755426
6168, 3.23248814257, -2.0203050891, 2.78781694654
6169, 2.82842712475, -1.76776695297, 2.93933982822
6170, 3.3137943877, -1.86400934308, 2.75732710461
6171, 2.89957008924, -1.6310081752, 2.91266121654
6172, 3.39199321602, -1.69599660801, 2.72800254399
6173, 2.96799406402, -1.48399703201, 2.88700222599
6174, 3.46579431087, -1.51628501101, 2.70032713342
6175, 3.03257002201, -1.32674938463, 2.86278624174
6176, 3.5338088344, -1.3251783129, 2.6748216871
6177, 3.0920827301, -1.15953102379, 2.84046897621
6178, 3.59459812033, -1.1233119126, 2.65202570488
6179, 3.14527335529, -0.982897923528, 2.82052249177
6180, 3.64673844671, -0.911684611677, 2.63247308248
6181, 3.19089614087, -0.797724035217, 2.80341394717
6182, 3.68889867331, -0.691668501245, 2.61666299751
6183, 3.22778633914, -0.605209938589, 2.78958012282
6184, 3.7199244398, -0.464990554975, 2.60502833507
6185, 3.25493388483, -0.406866735603, 2.77939979319
6186, 3.73891992216, -0.233682495135, 2.59790502919
6187, 3.27155493189, -0.204472183243, 2.77316690054
6188, 3.74531671028, 0, 2.59550623365
6189, 3.27715212149, 0, 2.77106795444
6190, 3.73891992216, 0.233682495135, 2.59790502919
6191, 3.27155493189, 0.204472183243, 2.77316690054
6192, 3.7199244398, 0.464990554975, 2.60502833507
6193, 3.25493388483, 0.406866735603, 2.77939979319
6194, 3.68889867331, 0.691668501245, 2.61666299751
6195, 3.22778633914, 0.605209938589, 2.78958012282
6196, 3.64673844671, 0.911684611677, 2.63247308248
6197, 3.19089614087, 0.797724035217, 2.80341394717
6198, 3.59459812033, 1.1233119126, 2.65202570488
6199, 3.14527335529, 0.982897923528, 2.82052249177
6200, 3.5338088344, 1.3251783129, 2.6748216871
6201, 3.0920827301, 1.15953102379, 2.84046897621
6202, 3.46579431087, 1.51628501101, 2.70032713342
6203, 3.03257002201, 1.32674938463, 2.86278624174
6204, 3.39199321602, 1.69599660801, 2.72800254399
6205, 2.96799406402, 1.48399703201, 2.88700222599
6206, 3.3137943877, 1.86400934308, 2.75732710461
6207, 2.89957008924, 1.6310081752, 2.91266121654
6208, 3.23248814257, 2.0203050891, 2.78781694654
6209, 2.82842712475, 1.76776695297, 2.93933982822
6210, 3.14923412035, 2.16509845774, 2.81903720487
6211, 2.75557985531, 1.89446115052, 2.96665755426
6212, 3.06504411271, 2.29878308453, 2.85060845773
6213, 2.68191359862, 2.01143519896, 2.99428240052
6214, 2.98077717013, 2.42188145073, 2.8822085612
6215, 2.60818002386, 2.11914626939, 3.02193249105
6216, 2.89714387336, 2.53500088919, 2.91357104749
6217, 2.53500088919, 2.21812577804, 3.04937466655
6218, 2.81471678165, 2.6387969828, 2.94448120688
6219, 2.46287718395, 2.30894735995, 3.07642105602
6220, 2.73394450469, 2.73394450469, 2.97477081074
6221, 2.39220144161, 2.39220144161, 3.1029244594
6222, 2.84514703664, -2.66732534685, 3.11089155105
6223, 2.48950365706, -2.33390967849, 3.22203010717
6224, 2.93035869757, -2.56406386038, 3.08426290701
6225, 2.56406386038, -2.24355587783, 3.19873004363
6226, 3.01698893306, -2.45130350811, 3.05719095842
6227, 2.63986531643, -2.1448905696, 3.17504208862
6228, 3.10445600047, -2.32834200035, 3.02985749985
6229, 2.71639900041, -2.03729925031, 3.15112531237
6230, 3.19202987554, -2.19452053944, 3.00249066389
6231, 2.7930261411, -1.92020547201, 3.12717933091
6232, 3.2788193253, -2.04926207831, 2.97536896084
6233, 2.86896690964, -1.79310431852, 3.10344784074
6234, 3.36376531986, -1.89211799242, 2.94882333754
6235, 2.94329465487, -1.65560324337, 3.08022042035
6236, 3.44564417317, -1.72282208659, 2.92323619588
6237, 3.01493865153, -1.50746932576, 3.0578316714
6238, 3.5230840484, -1.54134927118, 2.89903623487
6239, 3.08269854235, -1.34868061228, 3.03665670551
6240, 3.59459812033, -1.34797429512, 2.8766880874
6241, 3.14527335529, -1.17947750823, 3.01710207647
6242, 3.65863648304, -1.14332390095, 2.85667609905
6243, 3.20130692266, -1.00040841333, 2.99959158667
6244, 3.71365666039, -0.928414165097, 2.83948229363
6245, 3.24944957784, -0.81236239446, 2.98454700693
6246, 3.75820940489, -0.704664263418, 2.82555956097
6247, 3.28843322928, -0.61658123049, 2.97236461585
6248, 3.79103281766, -0.473879102207, 2.81530224448
6249, 3.31715371545, -0.414644214431, 2.96338946392
6250, 3.81114453872, -0.23819653367, 2.80901733165
6251, 3.33475147138, -0.208421966961, 2.95789016519
6252, 3.81791991214, 0, 2.80690002746
6253, 3.34067992312, 0, 2.95603752402
6254, 3.81114453872, 0.23819653367, 2.80901733165
6255, 3.33475147138, 0.208421966961, 2.95789016519
6256, 3.79103281766, 0.473879102207, 2.81530224448
6257, 3.31715371545, 0.414644214431, 2.96338946392
6258, 3.75820940489, 0.704664263418, 2.82555956097
6259, 3.28843322928, 0.61658123049, 2.97236461585
6260, 3.71365666039, 0.928414165097, 2.83948229363
6261, 3.24944957784, 0.81236239446, 2.98454700693
6262, 3.65863648304, 1.14332390095, 2.85667609905
6263, 3.20130692266, 1.00040841333, 2.99959158667
6264, 3.59459812033, 1.34797429512, 2.8766880874
6265, 3.14527335529, 1.17947750823, 3.01710207647
6266, 3.5230840484, 1.54134927118, 2.89903623487
6267, 3.08269854235, 1.34868061228, 3.03665670551
6268, 3.44564417317, 1.72282208659, 2.92323619588
6269, 3.01493865153, 1.50746932576, 3.0578316714
6270, 3.36376531986, 1.89211799242, 2.94882333754
6271, 2.94329465487, 1.65560324337, 3.08022042035
6272, 3.2788193253, 2.04926207831, 2.97536896084
6273, 2.86896690964, 1.79310431852, 3.10344784074
6274, 3.19202987554, 2.19452053944, 3.00249066389
6275, 2.7930261411, 1.92020547201, 3.12717933091
6276, 3.10445600047, 2.32834200035, 3.02985749985
6277, 2.71639900041, 2.03729925031, 3.15112531237
6278, 3.01698893306, 2.45130350811, 3.05719095842
6279, 2.63986531643, 2.1448905696, 3.17504208862
6280, 2.93035869757, 2.56406386038, 3.08426290701
6281, 2.56406386038, 2.24355587783, 3.19873004363
6282, 2.84514703664, 2.66732534685, 3.11089155105
6283, 2.48950365706, 2.33390967849, 3.22203010717
6284, 2.76180385281, 2.76180385281, 3.136936296
6285, 2.41657837121, 2.41657837121, 3.244819259
6286, 2.8707923457, -2.6913678241, 3.28230191357
6287, 2.51194330249, -2.35494684609, 3.37201417438
6288, 2.95840104653, -2.58860091572, 3.26039973837
6289, 2.58860091572, -2.26502580125, 3.35284977107
6290, 3.04761904762, -2.47619047619, 3.2380952381
6291, 2.66666666667, -2.16666666667, 3.33333333333
6292, 3.13785816221, -2.35339362166, 3.21553545945
6293, 2.74562589193, -2.05921941895, 3.31359352702
6294, 3.22837294275, -2.21950639814, 3.19290676431
6295, 2.82482632491, -1.94206809838, 3.29379341877
6296, 3.31824542314, -2.07390338946, 3.17043864422
6297, 2.90346474525, -1.81466546578, 3.27413381369
6298, 3.40637629064, -1.91608666348, 3.14840592734
6299, 2.98057925431, -1.67657583055, 3.25485518642
6300, 3.49148624378, -1.74574312189, 3.12712843906
6301, 3.0550504633, -1.52752523165, 3.23623738417
6302, 3.57213166199, -1.56280760212, 3.1069670845
6303, 3.12561520424, -1.36745665186, 3.21859619894
6304, 3.64673844671, -1.36752691752, 3.08831538832
6305, 3.19089614087, -1.19658605283, 3.20227596478
6306, 3.71365666039, -1.16051770637, 3.0715858349
6307, 3.24944957784, -1.01545299307, 3.18763760554
6308, 3.77123616633, -0.942809041582, 3.05719095842
6309, 3.29983164554, -0.824957911384, 3.17504208862
6310, 3.81791991214, -0.715859983526, 3.04552002196
6311, 3.34067992312, -0.626377485585, 3.16483001922
6312, 3.85234729874, -0.481543412343, 3.03691317531
6313, 3.3708038864, -0.4213504858, 3.1572990284
6314, 3.87345620908, -0.242091013068, 3.03163594773
6315, 3.38927418295, -0.211829636434, 3.15268145426
6316, 3.88057000058, 0, 3.02985749985
6317, 3.39549875051, 0, 3.15112531237
6318, 3.87345620908, 0.242091013068, 3.03163594773
6319, 3.38927418295, 0.211829636434, 3.15268145426
6320, 3.85234729874, 0.481543412343, 3.03691317531
6321, 3.3708038864, 0.4213504858, 3.1572990284
6322, 3.81791991214, 0.715859983526, 3.04552002196
6323, 3.34067992312, 0.626377485585, 3.16483001922
6324, 3.77123616633, 0.942809041582, 3.05719095842
6325, 3.29983164554, 0.824957911384, 3.17504208862
6326, 3.71365666039, 1.16051770637, 3.0715858349
6327, 3.24944957784, 1.01545299307, 3.18763760554
6328, 3.64673844671, 1.36752691752, 3.08831538832
6329, 3.19089614087, 1.19658605283, 3.20227596478
6330, 3.57213166199, 1.56280760212, 3.1069670845
6331, 3.12561520424, 1.36745665186, 3.21859619894
6332, 3.49148624378, 1.74574312189, 3.12712843906
6333, 3.0550504633, 1.52752523165, 3.23623738417
6334, 3.40637629064, 1.91608666348, 3.14840592734
6335, 2.98057925431, 1.67657583055, 3.25485518642
6336, 3.31824542314, 2.07390338946, 3.17043864422
6337, 2.90346474525, 1.81466546578, 3.27413381369
6338, 3.22837294275, 2.21950639814, 3.19290676431
6339, 2.82482632491, 1.94206809838, 3.29379341877
6340, 3.13785816221, 2.35339362166, 3.21553545945
6341, 2.74562589193, 2.05921941895, 3.31359352702
6342, 3.04761904762, 2.47619047619, 3.2380952381
6343, 2.66666666667, 2.16666666667, 3.33333333333
6344, 2.95840104653, 2.58860091572, 3.26039973837
6345, 2.58860091572, 2.26502580125, 3.35284977107
6346, 2.8707923457, 2.6913678241, 3.28230191357
6347, 2.51194330249, 2.35494684609, 3.37201417438
6348, 2.78524249529, 2.78524249529, 3.30368937618
6349, 2.43708718338, 2.43708718338, 3.39072820416
6350, 2.8912252893, -2.71052370872, 3.45789525826
6351, 2.52982212813, -2.37170824513, 3.52565835097
6352, 2.98077717013, -2.60818002386, 3.4411042806
6353, 2.60818002386, -2.28215752088, 3.51096624553
6354, 3.07209830872, -2.49607987583, 3.42398156712
6355, 2.68808602013, -2.18406989135, 3.49598387123
6356, 3.16459632918, -2.37344724688, 3.40663818828
6357, 2.76902178803, -2.07676634102, 3.48080841474
6358, 3.25751423078, -2.23954103366, 3.38921608173
6359, 2.85032495193, -1.95959840445, 3.46556407151
6360, 3.34991310458, -2.09369569036, 3.37189129289
6361, 2.93117396651, -1.83198372907, 3.45040488128
6362, 3.44066131565, -1.93537199005, 3.35487600332
6363, 3.01057865119, -1.6934504913, 3.4355165029
6364, 3.52843421709, -1.76421710854, 3.3384185843
6365, 3.08737993995, -1.54368996998, 3.42111626126
6366, 3.61172894709, -1.58013141435, 3.32280082242
6367, 3.16026282871, -1.38261498756, 3.40745071962
6368, 3.68889867331, -1.38333700249, 3.30833149875
6369, 3.22778633914, -1.21041987718, 3.39479006141
6370, 3.75820940489, -1.17444043903, 3.29533573658
6371, 3.28843322928, -1.02763538415, 3.38341876951
6372, 3.81791991214, -0.954479978035, 3.28414001647
6373, 3.34067992312, -0.835169980781, 3.37362251441
6374, 3.86638139731, -0.724946511996, 3.275053488
6375, 3.38308372265, -0.634328197997, 3.365671802
6376, 3.90214886944, -0.48776860868, 3.26834708698
6377, 3.41438026076, -0.426797532595, 3.35980370111
6378, 3.9240917727, -0.245255735794, 3.26423279262
6379, 3.43358030112, -0.21459876882, 3.35620369354
6380, 3.93148874774, 0, 3.2628458598
6381, 3.44005265427, 0, 3.35499012732
6382, 3.9240917727, 0.245255735794, 3.26423279262
6383, 3.43358030112, 0.21459876882, 3.35620369354
6384, 3.90214886944, 0.48776860868, 3.26834708698
6385, 3.41438026076, 0.426797532595, 3.35980370111
6386, 3.86638139731, 0.724946511996, 3.275053488
6387, 3.38308372265, 0.634328197997, 3.365671802
6388, 3.81791991214, 0.954479978035, 3.28414001647
6389, 3.34067992312, 0.835169980781, 3.37362251441
6390, 3.75820940489, 1.17444043903, 3.29533573658
6391, 3.28843322928, 1.02763538415, 3.38341876951
6392, 3.68889867331, 1.38333700249, 3.30833149875
6393, 3.22778633914, 1.21041987718, 3.39479006141
6394, 3.61172894709, 1.58013141435, 3.32280082242
6395, 3.16026282871, 1.38261498756, 3.40745071962
6396, 3.52843421709, 1.76421710854, 3.3384185843
6397, 3.08737993995, 1.54368996998, 3.42111626126
6398, 3.44066131565, 1.93537199005, 3.35487600332
6399, 3.01057865119, 1.6934504913, 3.4355165029
6400, 3.34991310458, 2.09369569036, 3.37189129289
6401, 2.93117396651, 1.83198372907, 3.45040488128
6402, 3.25751423078, 2.23954103366, 3.38921608173
6403, 2.85032495193, 1.95959840445, 3.46556407151
6404, 3.16459632918, 2.37344724688, 3.40663818828
6405, 2.76902178803, 2.07676634102, 3.48080841474
6406, 3.07209830872, 2.49607987583, 3.42398156712
6407, 2.68808602013, 2.18406989135, 3.49598387123
6408, 2.98077717013, 2.60818002386, 3.4411042806
6409, 2.60818002386, 2.28215752088, 3.51096624553
6410, 2.8912252893, 2.71052370872, 3.45789525826
6411, 2.52982212813, 2.37170824513, 3.52565835097
6412, 2.80389090777, 2.80389090777, 3.47427045479
6413, 2.45340454429, 2.45340454429, 3.53998664794
6414, 2.90609029879, -2.72445965512, 3.63673871265
6415, 2.54282901144, -2.38390219823, 3.68214637357
6416, 2.99707459706, -2.62244027243, 3.62536567537
6417, 2.62244027243, -2.29463523838, 3.67219496595
6418, 3.08994911735, -2.51058365784, 3.61375636033
6419, 2.70370547768, -2.19676070061, 3.66203681529
6420, 3.18411900867, -2.3880892565, 3.60198512392
6421, 2.78610413259, -2.08957809944, 3.65173698343
6422, 3.2788193253, -2.25418828615, 3.59014758434
6423, 2.86896690964, -1.97241475038, 3.6413791363
6424, 3.37309617085, -2.10818510678, 3.57836297864
6425, 2.95145914949, -1.84466196843, 3.63106760631
6426, 3.46579431087, -1.94950929987, 3.56677571114
6427, 3.03257002201, -1.70582063738, 3.62092874725
6428, 3.55555555556, -1.77777777778, 3.55555555556
6429, 3.11111111111, -1.55555555556, 3.61111111111
6430, 3.64083279353, -1.59286434717, 3.54489590081
6431, 3.18572869434, -1.39375630377, 3.60178391321
6432, 3.7199244398, -1.39497166493, 3.53500944502
6433, 3.25493388483, -1.22060020681, 3.5931332644
6434, 3.79103281766, -1.18469775552, 3.52612089779
6435, 3.31715371545, -1.03661053608, 3.58535578557
6436, 3.85234729874, -0.963086824686, 3.51845658766
6437, 3.3708038864, -0.8427009716, 3.5786495142
6438, 3.90214886944, -0.73165291302, 3.51223139132
6439, 3.41438026076, -0.640196298892, 3.57320246741
6440, 3.93892771134, -0.492365963917, 3.50763403608
6441, 3.44656174742, -0.430820218428, 3.56917978157
6442, 3.96150054778, -0.247593784236, 3.50481243153
6443, 3.4663129793, -0.216644561207, 3.56671087759
6444, 3.96911150685, 0, 3.50386106164
6445, 3.4729725685, 0, 3.56587842894
6446, 3.96150054778, 0.247593784236, 3.50481243153
6447, 3.4663129793, 0.216644561207, 3.56671087759
6448, 3.93892771134, 0.492365963917, 3.50763403608
6449, 3.44656174742, 0.430820218428, 3.56917978157
6450, 3.90214886944, 0.73165291302, 3.51223139132
6451, 3.41438026076, 0.640196298892, 3.57320246741
6452, 3.85234729874, 0.963086824686, 3.51845658766
6453, 3.3708038864, 0.8427009716, 3.5786495142
6454, 3.79103281766, 1.18469775552, 3.52612089779
6455, 3.31715371545, 1.03661053608, 3.58535578557
6456, 3.7199244398, 1.39497166493, 3.53500944502
6457, 3.25493388483, 1.22060020681, 3.5931332644
6458, 3.64083279353, 1.59286434717, 3.54489590081
6459, 3.18572869434, 1.39375630377, 3.60178391321
6460, 3.55555555556, 1.77777777778, 3.55555555556
6461, 3.11111111111, 1.55555555556, 3.61111111111
6462, 3.46579431087, 1.94950929987, 3.56677571114
6463, 3.03257002201, 1.70582063738, 3.62092874725
6464, 3.37309617085, 2.10818510678, 3.57836297864
6465, 2.95145914949, 1.84466196843, 3.63106760631
6466, 3.2788193253, 2.25418828615, 3.59014758434
6467, 2.86896690964, 1.97241475038, 3.6413791363
6468, 3.18411900867, 2.3880892565, 3.60198512392
6469, 2.78610413259, 2.08957809944, 3.65173698343
6470, 3.08994911735, 2.51058365784, 3.61375636033
6471, 2.70370547768, 2.19676070061, 3.66203681529
6472, 2.99707459706, 2.62244027243, 3.62536567537
6473, 2.62244027243, 2.29463523838, 3.67219496595
6474, 2.90609029879, 2.72445965512, 3.63673871265
6475, 2.54282901144, 2.38390219823, 3.68214637357
6476, 2.81744290024, 2.81744290024, 3.64781963747
6477, 2.46526253771, 2.46526253771, 3.69184218279
6478, 2.91512011952, -2.73292511205, 3.81780499253
6479, 2.55073010458, -2.39130947304, 3.84057936846
6480, 3.0069823087, -2.63110952012, 3.81206360571
6481, 2.63110952012, -2.3022208301, 3.83555565499
6482, 3.10081013191, -2.51940823218, 3.80619936676
6483, 2.71320886542, -2.20448220316, 3.83042444591
6484, 3.19600748441, -2.39700561331, 3.80024953222
6485, 2.79650654886, -2.09737991164, 3.8252183407
6486, 3.29180479919, -2.26311579944, 3.79426220005
6487, 2.88032919929, -1.98022632451, 3.81997942504
6488, 3.38723919376, -2.1170244961, 3.78829755039
6489, 2.96383429454, -1.85239643409, 3.81476035659
6490, 3.48114107661, -1.95814185559, 3.78242868271
6491, 3.04599844203, -1.71337412364, 3.80962509737
6492, 3.57213166199, -1.786065831, 3.77674177113
6493, 3.12561520424, -1.56280760212, 3.80464904973
6494, 3.65863648304, -1.60065346133, 3.77133521981
6495, 3.20130692266, -1.40057177866, 3.79991831733
6496, 3.73891992216, -1.40209497081, 3.76631750487
6497, 3.27155493189, -1.22683309946, 3.79552781676
6498, 3.81114453872, -1.19098266835, 3.76180346633
6499, 3.33475147138, -1.04210983481, 3.79157803304
6500, 3.87345620908, -0.96836405227, 3.75790898693
6501, 3.38927418295, -0.847318545736, 3.78817036357
6502, 3.9240917727, -0.735767207382, 3.75474426421
6503, 3.43358030112, -0.643796306459, 3.78540123118
6504, 3.96150054778, -0.495187568472, 3.75240621576
6505, 3.4663129793, -0.433289122413, 3.78335543879
6506, 3.98446596073, -0.249029122546, 3.75097087745
6507, 3.48640771564, -0.217900482228, 3.78209951777
6508, 3.99221031393, 0, 3.75048685538
6509, 3.49318402469, 0, 3.78167599846
6510, 3.98446596073, 0.249029122546, 3.75097087745
6511, 3.48640771564, 0.217900482228, 3.78209951777
6512, 3.96150054778, 0.495187568472, 3.75240621576
6513, 3.4663129793, 0.433289122413, 3.78335543879
6514, 3.9240917727, 0.735767207382, 3.75474426421
6515, 3.43358030112, 0.643796306459, 3.78540123118
6516, 3.87345620908, 0.96836405227, 3.75790898693
6517, 3.38927418295, 0.847318545736, 3.78817036357
6518, 3.81114453872, 1.19098266835, 3.76180346633
6519, 3.33475147138, 1.04210983481, 3.79157803304
6520, 3.73891992216, 1.40209497081, 3.76631750487
6521, 3.27155493189, 1.22683309946, 3.79552781676
6522, 3.65863648304, 1.60065346133, 3.77133521981
6523, 3.20130692266, 1.40057177866, 3.79991831733
6524, 3.57213166199, 1.786065831, 3.77674177113
6525, 3.12561520424, 1.56280760212, 3.80464904973
6526, 3.48114107661, 1.95814185559, 3.78242868271
6527, 3.04599844203, 1.71337412364, 3.80962509737
6528, 3.38723919376, 2.1170244961, 3.78829755039
6529, 2.96383429454, 1.85239643409, 3.81476035659
6530, 3.29180479919, 2.26311579944, 3.79426220005
6531, 2.88032919929, 1.98022632451, 3.81997942504
6532, 3.19600748441, 2.39700561331, 3.80024953222
6533, 2.79650654886, 2.09737991164, 3.8252183407
6534, 3.10081013191, 2.51940823218, 3.80619936676
6535, 2.71320886542, 2.20448220316, 3.83042444591
6536, 3.0069823087, 2.63110952012, 3.81206360571
6537, 2.63110952012, 2.3022208301, 3.83555565499
6538, 2.91512011952, 2.73292511205, 3.81780499253
6539, 2.55073010458, 2.39130947304, 3.84057936846
6540, 2.82566902841, 2.82566902841, 3.82339568572
6541, 2.47246039985, 2.47246039985, 3.84547122501
6542, 2.91814881656, -2.73576451553, 4
6543, 2.55338021449, -2.39379395108, 4
6544, 3.01030677883, -2.63401843147, 4
6545, 2.63401843147, -2.30476612754, 4
6546, 3.10445600047, -2.52237050038, 4
6547, 2.71639900041, -2.20707418783, 4
6548, 3.2, -2.4, 4
6549, 2.8, -2.1, 4
6550, 3.2961676968, -2.26611529155, 4
6551, 2.8841467347, -1.9828508801, 4
6552, 3.39199321602, -2.11999576001, 4
6553, 2.96799406402, -1.85499629001, 4
6554, 3.4863021485, -1.96104495853, 4
6555, 3.05051437994, -1.71591433871, 4
6556, 3.577708764, -1.788854382, 4
6557, 3.1304951685, -1.56524758425, 4
6558, 3.66462933961, -1.60327533608, 4
6559, 3.20655067216, -1.40286591907, 4
6560, 3.74531671028, -1.40449376635, 4
6561, 3.27715212149, -1.22893204556, 4
6562, 3.81791991214, -1.19309997254, 4
6563, 3.34067992312, -1.04396247598, 4
6564, 3.88057000058, -0.970142500145, 4
6565, 3.39549875051, -0.848874687627, 4
6566, 3.93148874774, -0.737154140201, 4
6567, 3.44005265427, -0.645009872676, 4
6568, 3.96911150685, -0.496138938357, 4
6569, 3.4729725685, -0.434121571062, 4
6570, 3.99221031393, -0.249513144621, 4
6571, 3.49318402469, -0.218324001543, 4
6572, 4, 0, 4
6573, 3.5, 0, 4
6574, 3.99221031393, 0.249513144621, 4
6575, 3.49318402469, 0.218324001543, 4
6576, 3.96911150685, 0.496138938357, 4
6577, 3.4729725685, 0.434121571062, 4
6578, 3.93148874774, 0.737154140201, 4
6579, 3.44005265427, 0.645009872676, 4
6580, 3.88057000058, 0.970142500145, 4
6581, 3.39549875051, 0.848874687627, 4
6582, 3.81791991214, 1.19309997254, 4
6583, 3.34067992312, 1.04396247598, 4
6584, 3.74531671028, 1.40449376635, 4
6585, 3.27715212149, 1.22893204556, 4
6586, 3.66462933961, 1.60327533608, 4
6587, 3.20655067216, 1.40286591907, 4
6588, 3.577708764, 1.788854382, 4
6589, 3.1304951685, 1.56524758425, 4
6590, 3.4863021485, 1.96104495853, 4
6591, 3.05051437994, 1.71591433871, 4
6592, 3.39199321602, 2.11999576001, 4
6593, 2.96799406402, 1.85499629001, 4
6594, 3.2961676968, 2.26611529155, 4
6595, 2.8841467347, 1.9828508801, 4
6596, 3.2, 2.4, 4
6597, 2.8, 2.1, 4
6598, 3.10445600047, 2.52237050038, 4
6599, 2.71639900041, 2.20707418783, 4
6600, 3.01030677883, 2.63401843147, 4
6601, 2.63401843147, 2.30476612754, 4
6602, 2.91814881656, 2.73576451553, 4
6603, 2.55338021449, 2.39379395108, 4
6604, 2.82842712475, 2.82842712475, 4
6605, 2.47487373415, 2.47487373415, 4
6606, -2.25812978848, 2.40867177438, 1.74187021152
6607, -1.97586356492, 2.10758780259, 2.02413643508
6608, -2.15225483767, 2.45971981448, 1.69401267393
6609, -1.88322298296, 2.15225483767, 1.98226108969
6610, -2.03960780544, 2.51028652977, 1.64660637834
6611, -1.78465682976, 2.19650071355, 1.94078058105
6612, -1.92, 2.56, 1.6
6613, -1.68, 2.24, 1.9
6614, -1.79330612107, 2.60844526701, 1.55458256218
6615, -1.56914285593, 2.28238960863, 1.86025974191
6616, -1.65947962729, 2.65516740366, 1.51078055906
6617, -1.45204467388, 2.32327147821, 1.82193298918
6618, -1.51856834619, 2.6996770599, 1.46905275634
6619, -1.32874730292, 2.36221742741, 1.7854211618
6620, -1.37072939801, 2.74145879602, 1.42988237873
6621, -1.19938822326, 2.39877644652, 1.75114708139
6622, -1.21624227974, 2.77998235368, 1.39376654342
6623, -1.06421199477, 2.43248455947, 1.71954572549
6624, -1.05551879312, 2.81471678165, 1.3612030172
6625, -0.92357894398, 2.46287718395, 1.69105264005
6626, -0.889108448949, 2.84514703664, 1.33267465315
6627, -0.77796989283, 2.48950365706, 1.66609032151
6628, -0.717698086426, 2.8707923457, 1.3086321759
6629, -0.627985825623, 2.51194330249, 1.64505315391
6630, -0.542104741743, 2.8912252893, 1.28947629128
6631, -0.474341649025, 2.52982212813, 1.62829175487
6632, -0.363261287349, 2.90609029879, 1.27554034488
6633, -0.317853626431, 2.54282901144, 1.61609780177
6634, -0.18219500747, 2.91512011952, 1.26707488795
6635, -0.159420631536, 2.55073010458, 1.60869052696
6636, 0, 2.91814881656, 1.26423548447
6637, 0, 2.55338021449, 1.60620604892
6638, 0.18219500747, 2.91512011952, 1.26707488795
6639, 0.159420631536, 2.55073010458, 1.60869052696
6640, 0.363261287349, 2.90609029879, 1.27554034488
6641, 0.317853626431, 2.54282901144, 1.61609780177
6642, 0.542104741743, 2.8912252893, 1.28947629128
6643, 0.474341649025, 2.52982212813, 1.62829175487
6644, 0.717698086426, 2.8707923457, 1.3086321759
6645, 0.627985825623, 2.51194330249, 1.64505315391
6646, 0.889108448949, 2.84514703664, 1.33267465315
6647, 0.77796989283, 2.48950365706, 1.66609032151
6648, 1.05551879312, 2.81471678165, 1.3612030172
6649, 0.92357894398, 2.46287718395, 1.69105264005
6650, 1.21624227974, 2.77998235368, 1.39376654342
6651, 1.06421199477, 2.43248455947, 1.71954572549
6652, 1.37072939801, 2.74145879602, 1.42988237873
6653, 1.19938822326, 2.39877644652, 1.75114708139
6654, 1.51856834619, 2.6996770599, 1.46905275634
6655, 1.32874730292, 2.36221742741, 1.7854211618
6656, 1.65947962729, 2.65516740366, 1.51078055906
6657, 1.45204467388, 2.32327147821, 1.82193298918
6658, 1.79330612107, 2.60844526701, 1.55458256218
6659, 1.56914285593, 2.28238960863, 1.86025974191
6660, 1.92, 2.56, 1.6
6661, 1.68, 2.24, 1.9
6662, 2.03960780544, 2.51028652977, 1.64660637834
6663, 1.78465682976, 2.19650071355, 1.94078058105
6664, 2.15225483767, 2.45971981448, 1.69401267393
6665, 1.88322298296, 2.15225483767, 1.98226108969
6666, 2.25812978848, 2.40867177438, 1.74187021152
6667, 1.97586356492, 2.10758780259, 2.02413643508
6668, -2.30598732607, 2.45971981448, 1.84774516233
6669, -2.01773891031, 2.15225483767, 2.11677701704
6670, -2.19988776369, 2.51415744422, 1.80011223631
6671, -1.92490179323, 2.19988776369, 2.07509820677
6672, -2.08668812015, 2.5682315325, 1.75279740907
6673, -1.82585210513, 2.24720259093, 2.03369773293
6674, -1.96615660925, 2.62154214566, 1.70615062255
6675, -1.72038703309, 2.29384937745, 1.99288179473
6676, -1.83812636984, 2.67363835612, 1.66056643839
6677, -1.60836057361, 2.33943356161, 1.95299563359
6678, -1.70251306152, 2.72402089843, 1.61648171388
6679, -1.48969892883, 2.38351828612, 1.91442149964
6680, -1.55933309457, 2.77214772367, 1.57437074178
6681, -1.36441645775, 2.42562925822, 1.87757439906
6682, -1.40872145012, 2.81744290024, 1.53473746229
6683, -1.23263126886, 2.46526253771, 1.8428952795
6684, -1.2509477445, 2.8593091303, 1.49810451099
6685, -1.09457927644, 2.50189548901, 1.81084144712
6686, -1.08642895251, 2.89714387336, 1.46499911081
6687, -0.950625333446, 2.53500088919, 1.78187422196
6688, -0.915737092991, 2.93035869757, 1.43593613962
6689, -0.801269956367, 2.56406386038, 1.75644412217
6690, -0.739600261634, 2.95840104653, 1.41139908428
6691, -0.647150228929, 2.58860091572, 1.73497419875
6692, -0.558895719399, 2.98077717013, 1.39181997614
6693, -0.489033754474, 2.60818002386, 1.71784247912
6694, -0.374634324633, 2.99707459706, 1.37755972757
6695, -0.327805034054, 2.62244027243, 1.70536476162
6696, -0.187936394294, 3.0069823087, 1.36889047988
6697, -0.164444345007, 2.63110952012, 1.6977791699
6698, 0, 3.01030677883, 1.36598156853
6699, 0, 2.63401843147, 1.69523387246
6700, 0.187936394294, 3.0069823087, 1.36889047988
6701, 0.164444345007, 2.63110952012, 1.6977791699
6702, 0.374634324633, 2.99707459706, 1.37755972757
6703, 0.327805034054, 2.62244027243, 1.70536476162
6704, 0.558895719399, 2.98077717013, 1.39181997614
6705, 0.489033754474, 2.60818002386, 1.71784247912
6706, 0.739600261634, 2.95840104653, 1.41139908428
6707, 0.647150228929, 2.58860091572, 1.73497419875
6708, 0.915737092991, 2.93035869757, 1.43593613962
6709, 0.801269956367, 2.56406386038, 1.75644412217
6710, 1.08642895251, 2.89714387336, 1.46499911081
6711, 0.950625333446, 2.53500088919, 1.78187422196
6712, 1.2509477445, 2.8593091303, 1.49810451099
6713, 1.09457927644, 2.50189548901, 1.81084144712
6714, 1.40872145012, 2.81744290024, 1.53473746229
6715, 1.23263126886, 2.46526253771, 1.8428952795
6716, 1.55933309457, 2.77214772367, 1.57437074178
6717, 1.36441645775, 2.42562925822, 1.87757439906
6718, 1.70251306152, 2.72402089843, 1.61648171388
6719, 1.48969892883, 2.38351828612, 1.91442149964
6720, 1.83812636984, 2.67363835612, 1.66056643839
6721, 1.60836057361, 2.33943356161, 1.95299563359
6722, 1.96615660925, 2.62154214566, 1.70615062255
6723, 1.72038703309, 2.29384937745, 1.99288179473
6724, 2.08668812015, 2.5682315325, 1.75279740907
6725, 1.82585210513, 2.24720259093, 2.03369773293
6726, 2.19988776369, 2.51415744422, 1.80011223631
6727, 1.92490179323, 2.19988776369, 2.07509820677
6728, 2.30598732607, 2.45971981448, 1.84774516233
6729, 2.01773891031, 2.15225483767, 2.11677701704
6730, -2.35339362166, 2.51028652977, 1.96039219456
6731, -2.05921941895, 2.19650071355, 2.21534317024
6732, -2.24720259093, 2.5682315325, 1.91331187985
6733, -1.96630226707, 2.24720259093, 2.17414789487
6734, -2.13358584364, 2.62595180756, 1.86641415636
6735, -1.86688761319, 2.29770783161, 2.13311238681
6736, -2.01226467912, 2.68301957216, 1.82004659762
6737, -1.76073159423, 2.34764212564, 2.09254077292
6738, -1.88302616705, 2.73894715207, 1.77460543894
6739, -1.64764789617, 2.39657875806, 2.05277975908
6740, -1.74574312189, 2.79318899502, 1.73053394155
6741, -1.52752523165, 2.44404037064, 2.01421719885
6742, -1.60039520811, 2.84514703664, 1.68831803273
6743, -1.40034580709, 2.48950365706, 1.97727827864
6744, -1.44709002127, 2.89418004254, 1.64847871544
6745, -1.26620376861, 2.53240753722, 1.94241887601
6746, -1.28608259409, 2.93961735792, 1.61156089669
6747, -1.12532226983, 2.57216518818, 1.91011578461
6748, -1.1177914388, 2.98077717013, 1.57811854927
6749, -0.978067508949, 2.60818002386, 1.88085373061
6750, -0.942809041582, 3.01698893306, 1.54869649189
6751, -0.824957911384, 2.63986531643, 1.8551094304
6752, -0.761904761905, 3.04761904762, 1.52380952381
6753, -0.666666666667, 2.66666666667, 1.83333333333
6754, -0.576018432885, 3.07209830872, 1.50392012417
6755, -0.504016128774, 2.68808602013, 1.81593010865
6756, -0.386243639668, 3.08994911735, 1.48941634216
6757, -0.33796318471, 2.70370547768, 1.80323929939
6758, -0.193800633245, 3.10081013191, 1.48059176782
6759, -0.169575554089, 2.71320886542, 1.79551779684
6760, 0, 3.10445600047, 1.47762949962
6761, 0, 2.71639900041, 1.79292581217
6762, 0.193800633245, 3.10081013191, 1.48059176782
6763, 0.169575554089, 2.71320886542, 1.79551779684
6764, 0.386243639668, 3.08994911735, 1.48941634216
6765, 0.33796318471, 2.70370547768, 1.80323929939
6766, 0.576018432885, 3.07209830872, 1.50392012417
6767, 0.504016128774, 2.68808602013, 1.81593010865
6768, 0.761904761905, 3.04761904762, 1.52380952381
6769, 0.666666666667, 2.66666666667, 1.83333333333
6770, 0.942809041582, 3.01698893306, 1.54869649189
6771, 0.824957911384, 2.63986531643, 1.8551094304
6772, 1.1177914388, 2.98077717013, 1.57811854927
6773, 0.978067508949, 2.60818002386, 1.88085373061
6774, 1.28608259409, 2.93961735792, 1.61156089669
6775, 1.12532226983, 2.57216518818, 1.91011578461
6776, 1.44709002127, 2.89418004254, 1.64847871544
6777, 1.26620376861, 2.53240753722, 1.94241887601
6778, 1.60039520811, 2.84514703664, 1.68831803273
6779, 1.40034580709, 2.48950365706, 1.97727827864
6780, 1.74574312189, 2.79318899502, 1.73053394155
6781, 1.52752523165, 2.44404037064, 2.01421719885
6782, 1.88302616705, 2.73894715207, 1.77460543894
6783, 1.64764789617, 2.39657875806, 2.05277975908
6784, 2.01226467912, 2.68301957216, 1.82004659762
6785, 1.76073159423, 2.34764212564, 2.09254077292
6786, 2.13358584364, 2.62595180756, 1.86641415636
6787, 1.86688761319, 2.29770783161, 2.13311238681
6788, 2.24720259093, 2.5682315325, 1.91331187985
6789, 1.96630226707, 2.24720259093, 2.17414789487
6790, 2.35339362166, 2.51028652977, 1.96039219456
6791, 2.05921941895, 2.19650071355, 2.21534317024
6792, -2.4, 2.56, 2.08
6793, -2.1, 2.24, 2.32
6794, -2.29384937745, 2.62154214566, 2.03384339075
6795, -2.00711820527, 2.29384937745, 2.27961296691
6796, -2.17995340238, 2.68301957216, 1.98773532088
6797, -1.90745922708, 2.34764212564, 2.23926840577
6798, -2.05798302171, 2.74397736228, 1.94201697829
6799, -1.800735144, 2.400980192, 2.199264856
6800, -1.92767499909, 2.80389090777, 1.89708181918
6801, -1.6867156242, 2.45340454429, 2.15994659178
6802, -1.788854382, 2.8621670112, 1.8533747416
6803, -1.56524758425, 2.5043961348, 2.1217028989
6804, -1.64145870932, 2.91814881656, 1.81138838758
6805, -1.43627637065, 2.55338021449, 2.08496483913
6806, -1.48556270542, 2.97112541083, 1.77165594188
6807, -1.29986736724, 2.59973473448, 2.05019894914
6808, -1.32140169891, 3.02034674037, 1.73473994472
6809, -1.15622648655, 2.64280339782, 2.01789745163
6810, -1.14939154227, 3.06504411271, 1.70121691547
6811, -1.00571759948, 2.68191359862, 1.98856480104
6812, -0.970142500145, 3.10445600047, 1.67165799965
6813, -0.848874687627, 2.71639900041, 1.96270074969
6814, -0.784464540553, 3.13785816221, 1.64660637834
6815, -0.686406472984, 2.74562589193, 1.94078058105
6816, -0.593361811721, 3.16459632918, 1.62655275312
6817, -0.519191585256, 2.76902178803, 1.92323365898
6818, -0.398014876084, 3.18411900867, 1.6119107435
6819, -0.348263016573, 2.78610413259, 1.91042190056
6820, -0.199750467776, 3.19600748441, 1.60299438669
6821, -0.174781659304, 2.79650654886, 1.90262008836
6822, 0, 3.2, 1.6
6823, 0, 2.8, 1.9
6824, 0.199750467776, 3.19600748441, 1.60299438669
6825, 0.174781659304, 2.79650654886, 1.90262008836
6826, 0.398014876084, 3.18411900867, 1.6119107435
6827, 0.348263016573, 2.78610413259, 1.91042190056
6828, 0.593361811721, 3.16459632918, 1.62655275312
6829, 0.519191585256, 2.76902178803, 1.92323365898
6830, 0.784464540553, 3.13785816221, 1.64660637834
6831, 0.686406472984, 2.74562589193, 1.94078058105
6832, 0.970142500145, 3.10445600047, 1.67165799965
6833, 0.848874687627, 2.71639900041, 1.96270074969
6834, 1.14939154227, 3.06504411271, 1.70121691547
6835, 1.00571759948, 2.68191359862, 1.98856480104
6836, 1.32140169891, 3.02034674037, 1.73473994472
6837, 1.15622648655, 2.64280339782, 2.01789745163
6838, 1.48556270542, 2.97112541083, 1.77165594188
6839, 1.29986736724, 2.59973473448, 2.05019894914
6840, 1.64145870932, 2.91814881656, 1.81138838758
6841, 1.43627637065, 2.55338021449, 2.08496483913
6842, 1.788854382, 2.8621670112, 1.8533747416
6843, 1.56524758425, 2.5043961348, 2.1217028989
6844, 1.92767499909, 2.80389090777, 1.89708181918
6845, 1.6867156242, 2.45340454429, 2.15994659178
6846, 2.05798302171, 2.74397736228, 1.94201697829
6847, 1.800735144, 2.400980192, 2.199264856
6848, 2.17995340238, 2.68301957216, 1.98773532088
6849, 1.90745922708, 2.34764212564, 2.23926840577
6850, 2.29384937745, 2.62154214566, 2.03384339075
6851, 2.00711820527, 2.29384937745, 2.27961296691
6852, 2.4, 2.56, 2.08
6853, 2.1, 2.24, 2.32
6854, -2.44541743782, 2.60844526701, 2.20669387893
6855, -2.13974025809, 2.28238960863, 2.43085714407
6856, -2.33943356161, 2.67363835612, 2.16187363016
6857, -2.04700436641, 2.33943356161, 2.39163942639
6858, -2.22539456106, 2.73894715207, 2.11697383295
6859, -1.94722024092, 2.39657875806, 2.35235210383
6860, -2.10291818082, 2.80389090777, 2.07232500091
6861, -1.84005340822, 2.45340454429, 2.3132843758
6862, -1.97168714577, 2.86790857567, 2.02831285423
6863, -1.72522625255, 2.50942000371, 2.27477374745
6864, -1.83147418598, 2.93035869757, 1.98537839542
6865, -1.60253991273, 2.56406386038, 2.23720609599
6866, -1.68216952866, 2.9905236065, 1.94401502053
6867, -1.47189833758, 2.61670815569, 2.20101314296
6868, -1.52380952381, 3.04761904762, 1.90476190476
6869, -1.33333333333, 2.66666666667, 2.16666666667
6870, -1.35660443271, 3.10081013191, 1.86819303431
6871, -1.18702887862, 2.71320886542, 2.13466890502
6872, -1.18096279513, 3.14923412035, 1.83490154226
6873, -1.03334244574, 2.75557985531, 2.10553884948
6874, -0.997509336108, 3.19202987554, 1.80547946056
6875, -0.872820669094, 2.7930261411, 2.07979452799
6876, -0.807093235689, 3.22837294275, 1.78049360186
6877, -0.706206581227, 2.82482632491, 2.05793190162
6878, -0.610783918271, 3.25751423078, 1.76045896634
6879, -0.534435928487, 2.85032495193, 2.04040159555
6880, -0.409852415663, 3.2788193253, 1.74581171385
6881, -0.358620863705, 2.86896690964, 2.02758524962
6882, -0.205737799949, 3.29180479919, 1.73688420056
6883, -0.180020574956, 2.88032919929, 2.01977367549
6884, 0, 3.2961676968, 1.73388470845
6885, 0, 2.8841467347, 2.0171491199
6886, 0.205737799949, 3.29180479919, 1.73688420056
6887, 0.180020574956, 2.88032919929, 2.01977367549
6888, 0.409852415663, 3.2788193253, 1.74581171385
6889, 0.358620863705, 2.86896690964, 2.02758524962
6890, 0.610783918271, 3.25751423078, 1.76045896634
6891, 0.534435928487, 2.85032495193, 2.04040159555
6892, 0.807093235689, 3.22837294275, 1.78049360186
6893, 0.706206581227, 2.82482632491, 2.05793190162
6894, 0.997509336108, 3.19202987554, 1.80547946056
6895, 0.872820669094, 2.7930261411, 2.07979452799
6896, 1.18096279513, 3.14923412035, 1.83490154226
6897, 1.03334244574, 2.75557985531, 2.10553884948
6898, 1.35660443271, 3.10081013191, 1.86819303431
6899, 1.18702887862, 2.71320886542, 2.13466890502
6900, 1.52380952381, 3.04761904762, 1.90476190476
6901, 1.33333333333, 2.66666666667, 2.16666666667
6902, 1.68216952866, 2.9905236065, 1.94401502053
6903, 1.47189833758, 2.61670815569, 2.20101314296
6904, 1.83147418598, 2.93035869757, 1.98537839542
6905, 1.60253991273, 2.56406386038, 2.23720609599
6906, 1.97168714577, 2.86790857567, 2.02831285423
6907, 1.72522625255, 2.50942000371, 2.27477374745
6908, 2.10291818082, 2.80389090777, 2.07232500091
6909, 1.84005340822, 2.45340454429, 2.3132843758
6910, 2.22539456106, 2.73894715207, 2.11697383295
6911, 1.94722024092, 2.39657875806, 2.35235210383
6912, 2.33943356161, 2.67363835612, 2.16187363016
6913, 2.04700436641, 2.33943356161, 2.39163942639
6914, 2.44541743782, 2.60844526701, 2.20669387893
6915, 2.13974025809, 2.28238960863, 2.43085714407
6916, -2.48921944094, 2.65516740366, 2.34052037271
6917, -2.17806701082, 2.32327147821, 2.54795532612
6918, -2.38351828612, 2.72402089843, 2.29748693848
6919, -2.08557850036, 2.38351828612, 2.51030107117
6920, -2.26946605845, 2.79318899502, 2.25425687811
6921, -1.98578280115, 2.44404037064, 2.47247476835
6922, -2.1466252584, 2.8621670112, 2.211145618
6923, -1.8782971011, 2.5043961348, 2.43475241575
6924, -2.01462160458, 2.93035869757, 2.16852581402
6925, -1.76279390401, 2.56406386038, 2.39746008727
6926, -1.87317162316, 2.99707459706, 2.12682837684
6927, -1.63902517027, 2.62244027243, 2.36097482973
6928, -1.72211354365, 3.0615351887, 2.08654050706
6929, -1.50684935069, 2.67884329012, 2.32572294368
6930, -1.56144011672, 3.12288023344, 2.0481998541
6931, -1.36626010213, 2.73252020426, 2.29217487234
6932, -1.391331186, 3.180185568, 2.01238402
6933, -1.21741478775, 2.782662372, 2.2608360175
6934, -1.21218305346, 3.23248814257, 1.9796949109
6935, -1.06066017178, 2.82842712475, 2.23223304703
6936, -1.02463103916, 3.2788193253, 1.95073792169
6937, -0.896552159262, 2.86896690964, 2.20689568148
6938, -0.829561355784, 3.31824542314, 1.92609661054
6939, -0.725866186311, 2.90346474525, 2.18533453422
6940, -0.628108707108, 3.34991310458, 1.90630430964
6941, -0.54959511872, 2.93117396651, 2.16801627093
6942, -0.421637021356, 3.37309617085, 1.89181489322
6943, -0.368932393686, 2.95145914949, 2.15533803157
6944, -0.21170244961, 3.38723919376, 1.8829755039
6945, -0.185239643409, 2.96383429454, 2.14760356591
6946, 0, 3.39199321602, 1.88000423999
6947, 0, 2.96799406402, 2.14500370999
6948, 0.21170244961, 3.38723919376, 1.8829755039
6949, 0.185239643409, 2.96383429454, 2.14760356591
6950, 0.421637021356, 3.37309617085, 1.89181489322
6951, 0.368932393686, 2.95145914949, 2.15533803157
6952, 0.628108707108, 3.34991310458, 1.90630430964
6953, 0.54959511872, 2.93117396651, 2.16801627093
6954, 0.829561355784, 3.31824542314, 1.92609661054
6955, 0.725866186311, 2.90346474525, 2.18533453422
6956, 1.02463103916, 3.2788193253, 1.95073792169
6957, 0.896552159262, 2.86896690964, 2.20689568148
6958, 1.21218305346, 3.23248814257, 1.9796949109
6959, 1.06066017178, 2.82842712475, 2.23223304703
6960, 1.391331186, 3.180185568, 2.01238402
6961, 1.21741478775, 2.782662372, 2.2608360175
6962, 1.56144011672, 3.12288023344, 2.0481998541
6963, 1.36626010213, 2.73252020426, 2.29217487234
6964, 1.72211354365, 3.0615351887, 2.08654050706
6965, 1.50684935069, 2.67884329012, 2.32572294368
6966, 1.87317162316, 2.99707459706, 2.12682837684
6967, 1.63902517027, 2.62244027243, 2.36097482973
6968, 2.01462160458, 2.93035869757, 2.16852581402
6969, 1.76279390401, 2.56406386038, 2.39746008727
6970, 2.1466252584, 2.8621670112, 2.211145618
6971, 1.8782971011, 2.5043961348, 2.43475241575
6972, 2.26946605845, 2.79318899502, 2.25425687811
6973, 1.98578280115, 2.44404037064, 2.47247476835
6974, 2.38351828612, 2.72402089843, 2.29748693848
6975, 2.08557850036, 2.38351828612, 2.51030107117
6976, 2.48921944094, 2.65516740366, 2.34052037271
6977, 2.17806701082, 2.32327147821, 2.54795532612
6978, -2.53094724366, 2.6996770599, 2.48143165381
6979, -2.2145788382, 2.36221742741, 2.67125269708
6980, -2.42562925822, 2.77214772367, 2.44066690543
6981, -2.12242560094, 2.42562925822, 2.63558354225
6982, -2.31168196727, 2.84514703664, 2.39960479189
6983, -2.02272172136, 2.48950365706, 2.59965419291
6984, -2.18861161242, 2.91814881656, 2.35854129068
6985, -1.91503516087, 2.55338021449, 2.56372362935
6986, -2.05598497947, 2.9905236065, 2.31783047134
6987, -1.79898685704, 2.61670815569, 2.52810166242
6988, -1.91345949294, 3.0615351887, 2.27788645635
6989, -1.67427705632, 2.67884329012, 2.49315064931
6990, -1.76081755696, 3.13034232348, 2.23918244304
6991, -1.54071536234, 2.73904953305, 2.45928463766
6992, -1.5980037422, 3.19600748441, 2.20224579002
6993, -1.39825327443, 2.79650654886, 2.42696506627
6994, -1.42516247597, 3.25751423078, 2.16764824519
6995, -1.24701716647, 2.85032495193, 2.39669221454
6996, -1.24267289539, 3.3137943877, 2.13599065692
6997, -1.08733878346, 2.89957008924, 2.3689918248
6998, -1.05117666246, 3.36376531986, 2.10788200758
6999, -0.919779579648, 2.94329465487, 2.34439675663
7000, -0.85159407266, 3.40637629064, 2.08391333652
7001, -0.745144813577, 2.98057925431, 2.32342416945
7002, -0.645123996685, 3.44066131565, 2.06462800995
7003, -0.564483497099, 3.01057865119, 2.3065495087
7004, -0.433224288859, 3.46579431087, 2.05049070013
7005, -0.379071252752, 3.03257002201, 2.29417936262
7006, -0.217571317288, 3.48114107661, 2.04185814441
7007, -0.190374902627, 3.04599844203, 2.28662587636
7008, 0, 3.4863021485, 2.03895504147
7009, 0, 3.05051437994, 2.28408566129
7010, 0.217571317288, 3.48114107661, 2.04185814441
7011, 0.190374902627, 3.04599844203, 2.28662587636
7012, 0.433224288859, 3.46579431087, 2.05049070013
7013, 0.379071252752, 3.03257002201, 2.29417936262
7014, 0.645123996685, 3.44066131565, 2.06462800995
7015, 0.564483497099, 3.01057865119, 2.3065495087
7016, 0.85159407266, 3.40637629064, 2.08391333652
7017, 0.745144813577, 2.98057925431, 2.32342416945
7018, 1.05117666246, 3.36376531986, 2.10788200758
7019, 0.919779579648, 2.94329465487, 2.34439675663
7020, 1.24267289539, 3.3137943877, 2.13599065692
7021, 1.08733878346, 2.89957008924, 2.3689918248
7022, 1.42516247597, 3.25751423078, 2.16764824519
7023, 1.24701716647, 2.85032495193, 2.39669221454
7024, 1.5980037422, 3.19600748441, 2.20224579002
7025, 1.39825327443, 2.79650654886, 2.42696506627
7026, 1.76081755696, 3.13034232348, 2.23918244304
7027, 1.54071536234, 2.73904953305, 2.45928463766
7028, 1.91345949294, 3.0615351887, 2.27788645635
7029, 1.67427705632, 2.67884329012, 2.49315064931
7030, 2.05598497947, 2.9905236065, 2.31783047134
7031, 1.79898685704, 2.61670815569, 2.52810166242
7032, 2.18861161242, 2.91814881656, 2.35854129068
7033, 1.91503516087, 2.55338021449, 2.56372362935
7034, 2.31168196727, 2.84514703664, 2.39960479189
7035, 2.02272172136, 2.48950365706, 2.59965419291
7036, 2.42562925822, 2.77214772367, 2.44066690543
7037, 2.12242560094, 2.42562925822, 2.63558354225
7038, 2.53094724366, 2.6996770599, 2.48143165381
7039, 2.2145788382, 2.36221742741, 2.67125269708
7040, -2.57011762127, 2.74145879602, 2.62927060199
7041, -2.24885291861, 2.39877644652, 2.80061177674
7042, -2.46526253771, 2.81744290024, 2.59127854988
7043, -2.1571047205, 2.46526253771, 2.76736873114
7044, -2.35152128456, 2.89418004254, 2.55290997873
7045, -2.05758112399, 2.53240753722, 2.73379623139
7046, -2.22834405812, 2.97112541083, 2.51443729458
7047, -1.94980105086, 2.59973473448, 2.70013263276
7048, -2.09523809524, 3.04761904762, 2.47619047619
7049, -1.83333333333, 2.66666666667, 2.66666666667
7050, -1.9518001459, 3.12288023344, 2.43855988328
7051, -1.70782512766, 2.73252020426, 2.63373989787
7052, -1.79775420998, 3.19600748441, 2.4019962578
7053, -1.57303493373, 2.79650654886, 2.60174672557
7054, -1.63299316186, 3.26598632371, 2.36700683814
7055, -1.42886901662, 2.85773803325, 2.57113098338
7056, -1.45762177763, 3.33170692029, 2.33414653985
7057, -1.27541905542, 2.91524355525, 2.54237822237
7058, -1.27199745601, 3.39199321602, 2.30400339199
7059, -1.11299777401, 2.96799406402, 2.51600296799
7060, -1.07676380412, 3.44564417317, 2.27717791341
7061, -0.942168328602, 3.01493865153, 2.49253067424
7062, -0.872871560944, 3.49148624378, 2.25425687811
7063, -0.763762615826, 3.0550504633, 2.47247476835
7064, -0.661581415704, 3.52843421709, 2.23578289146
7065, -0.578883738741, 3.08737993995, 2.45631003002
7066, -0.444444444444, 3.55555555556, 2.22222222222
7067, -0.388888888889, 3.11111111111, 2.44444444444
7068, -0.223258228874, 3.57213166199, 2.213934169
7069, -0.195350950265, 3.12561520424, 2.43719239788
7070, 0, 3.577708764, 2.211145618
7071, 0, 3.1304951685, 2.43475241575
7072, 0.223258228874, 3.57213166199, 2.213934169
7073, 0.195350950265, 3.12561520424, 2.43719239788
7074, 0.444444444444, 3.55555555556, 2.22222222222
7075, 0.388888888889, 3.11111111111, 2.44444444444
7076, 0.661581415704, 3.52843421709, 2.23578289146
7077, 0.578883738741, 3.08737993995, 2.45631003002
7078, 0.872871560944, 3.49148624378, 2.25425687811
7079, 0.763762615826, 3.0550504633, 2.47247476835
7080, 1.07676380412, 3.44564417317, 2.27717791341
7081, 0.942168328602, 3.01493865153, 2.49253067424
7082, 1.27199745601, 3.39199321602, 2.30400339199
7083, 1.11299777401, 2.96799406402, 2.51600296799
7084, 1.45762177763, 3.33170692029, 2.33414653985
7085, 1.27541905542, 2.91524355525, 2.54237822237
7086, 1.63299316186, 3.26598632371, 2.36700683814
7087, 1.42886901662, 2.85773803325, 2.57113098338
7088, 1.79775420998, 3.19600748441, 2.4019962578
7089, 1.57303493373, 2.79650654886, 2.60174672557
7090, 1.9518001459, 3.12288023344, 2.43855988328
7091, 1.70782512766, 2.73252020426, 2.63373989787
7092, 2.09523809524, 3.04761904762, 2.47619047619
7093, 1.83333333333, 2.66666666667, 2.66666666667
7094, 2.22834405812, 2.97112541083, 2.51443729458
7095, 1.94980105086, 2.59973473448, 2.70013263276
7096, 2.35152128456, 2.89418004254, 2.55290997873
7097, 2.05758112399, 2.53240753722, 2.73379623139
7098, 2.46526253771, 2.81744290024, 2.59127854988
7099, 2.1571047205, 2.46526253771, 2.76736873114
7100, 2.57011762127, 2.74145879602, 2.62927060199
7101, 2.24885291861, 2.39877644652, 2.80061177674
7102, -2.60623345658, 2.77998235368, 2.78375772026
7103, -2.28045427451, 2.43248455947, 2.93578800523
7104, -2.50189548901, 2.8593091303, 2.7490522555
7105, -2.18915855288, 2.50189548901, 2.90542072356
7106, -2.38843910331, 2.93961735792, 2.71391740591
7107, -2.08988421539, 2.57216518818, 2.87467773017
7108, -2.26526005528, 3.02034674037, 2.67859830109
7109, -1.98210254837, 2.64280339782, 2.84377351345
7110, -2.13180696569, 3.10081013191, 2.64339556729
7111, -1.86533109498, 2.71320886542, 2.81297112138
7112, -1.98761598, 3.180185568, 2.608668814
7113, -1.7391639825, 2.782662372, 2.78258521225
7114, -1.83235175481, 3.25751423078, 2.57483752403
7115, -1.60330778546, 2.85032495193, 2.75298283353
7116, -1.66585346015, 3.33170692029, 2.54237822237
7117, -1.45762177763, 2.91524355525, 2.72458094458
7118, -1.48818320967, 3.4015616221, 2.51181679033
7119, -1.30216030846, 2.97636641934, 2.69783969154
7120, -1.29967286658, 3.46579431087, 2.48371498899
7121, -1.13721375826, 3.03257002201, 2.67325061537
7122, -1.10096376513, 3.5230840484, 2.45865072882
7123, -0.963343294486, 3.08269854235, 2.65131938772
7124, -0.893032915498, 3.57213166199, 2.43719239788
7125, -0.78140380106, 3.12561520424, 2.63254334814
7126, -0.67719917758, 3.61172894709, 2.41986858565
7127, -0.592549280382, 3.16026282871, 2.61738501244
7128, -0.455104099191, 3.64083279353, 2.40713565283
7129, -0.398216086792, 3.18572869434, 2.60624369623
7130, -0.22866478019, 3.65863648304, 2.39934653867
7131, -0.200081682666, 3.20130692266, 2.59942822134
7132, 0, 3.66462933961, 2.39672466392
7133, 0, 3.20655067216, 2.59713408093
7134, 0.22866478019, 3.65863648304, 2.39934653867
7135, 0.200081682666, 3.20130692266, 2.59942822134
7136, 0.455104099191, 3.64083279353, 2.40713565283
7137, 0.398216086792, 3.18572869434, 2.60624369623
7138, 0.67719917758, 3.61172894709, 2.41986858565
7139, 0.592549280382, 3.16026282871, 2.61738501244
7140, 0.893032915498, 3.57213166199, 2.43719239788
7141, 0.78140380106, 3.12561520424, 2.63254334814
7142, 1.10096376513, 3.5230840484, 2.45865072882
7143, 0.963343294486, 3.08269854235, 2.65131938772
7144, 1.29967286658, 3.46579431087, 2.48371498899
7145, 1.13721375826, 3.03257002201, 2.67325061537
7146, 1.48818320967, 3.4015616221, 2.51181679033
7147, 1.30216030846, 2.97636641934, 2.69783969154
7148, 1.66585346015, 3.33170692029, 2.54237822237
7149, 1.45762177763, 2.91524355525, 2.72458094458
7150, 1.83235175481, 3.25751423078, 2.57483752403
7151, 1.60330778546, 2.85032495193, 2.75298283353
7152, 1.98761598, 3.180185568, 2.608668814
7153, 1.7391639825, 2.782662372, 2.78258521225
7154, 2.13180696569, 3.10081013191, 2.64339556729
7155, 1.86533109498, 2.71320886542, 2.81297112138
7156, 2.26526005528, 3.02034674037, 2.67859830109
7157, 1.98210254837, 2.64280339782, 2.84377351345
7158, 2.38843910331, 2.93961735792, 2.71391740591
7159, 2.08988421539, 2.57216518818, 2.87467773017
7160, 2.50189548901, 2.8593091303, 2.7490522555
7161, 2.18915855288, 2.50189548901, 2.90542072356
7162, 2.60623345658, 2.77998235368, 2.78375772026
7163, 2.28045427451, 2.43248455947, 2.93578800523
7164, -2.6387969828, 2.81471678165, 2.94448120688
7165, -2.30894735995, 2.46287718395, 3.07642105602
7166, -2.53500088919, 2.89714387336, 2.91357104749
7167, -2.21812577804, 2.53500088919, 3.04937466655
7168, -2.42188145073, 2.98077717013, 2.8822085612
7169, -2.11914626939, 2.60818002386, 3.02193249105
7170, -2.29878308453, 3.06504411271, 2.85060845773
7171, -2.01143519896, 2.68191359862, 2.99428240052
7172, -2.16509845774, 3.14923412035, 2.81903720487
7173, -1.89446115052, 2.75557985531, 2.96665755426
7174, -2.0203050891, 3.23248814257, 2.78781694654
7175, -1.76776695297, 2.82842712475, 2.93933982822
7176, -1.86400934308, 3.3137943877, 2.75732710461
7177, -1.6310081752, 2.89957008924, 2.91266121654
7178, -1.69599660801, 3.39199321602, 2.72800254399
7179, -1.48399703201, 2.96799406402, 2.88700222599
7180, -1.51628501101, 3.46579431087, 2.70032713342
7181, -1.32674938463, 3.03257002201, 2.86278624174
7182, -1.3251783129, 3.5338088344, 2.6748216871
7183, -1.15953102379, 3.0920827301, 2.84046897621
7184, -1.1233119126, 3.59459812033, 2.65202570488
7185, -0.982897923528, 3.14527335529, 2.82052249177
7186, -0.911684611677, 3.64673844671, 2.63247308248
7187, -0.797724035217, 3.19089614087, 2.80341394717
7188, -0.691668501245, 3.68889867331, 2.61666299751
7189, -0.605209938589, 3.22778633914, 2.78958012282
7190, -0.464990554975, 3.7199244398, 2.60502833507
7191, -0.406866735603, 3.25493388483, 2.77939979319
7192, -0.233682495135, 3.73891992216, 2.59790502919
7193, -0.204472183243, 3.27155493189, 2.77316690054
7194, 0, 3.74531671028, 2.59550623365
7195, 0, 3.27715212149, 2.77106795444
7196, 0.233682495135, 3.73891992216, 2.59790502919
7197, 0.204472183243, 3.27155493189, 2.77316690054
7198, 0.464990554975, 3.7199244398, 2.60502833507
7199, 0.406866735603, 3.25493388483, 2.77939979319
7200, 0.691668501245, 3.68889867331, 2.61666299751
7201, 0.605209938589, 3.22778633914, 2.78958012282
7202, 0.911684611677, 3.64673844671, 2.63247308248
7203, 0.797724035217, 3.19089614087, 2.80341394717
7204, 1.1233119126, 3.59459812033, 2.65202570488
7205, 0.982897923528, 3.14527335529, 2.82052249177
7206, 1.3251783129, 3.5338088344, 2.6748216871
7207, 1.15953102379, 3.0920827301, 2.84046897621
7208, 1.51628501101, 3.46579431087, 2.70032713342
7209, 1.32674938463, 3.03257002201, 2.86278624174
7210, 1.69599660801, 3.39199321602, 2.72800254399
7211, 1.48399703201, 2.96799406402, 2.88700222599
7212, 1.86400934308, 3.3137943877, 2.75732710461
7213, 1.6310081752, 2.89957008924, 2.91266121654
7214, 2.0203050891, 3.23248814257, 2.78781694654
7215, 1.76776695297, 2.82842712475, 2.93933982822
7216, 2.16509845774, 3.14923412035, 2.81903720487
7217, 1.89446115052, 2.75557985531, 2.96665755426
7218, 2.29878308453, 3.06504411271, 2.85060845773
7219, 2.01143519896, 2.68191359862, 2.99428240052
7220, 2.42188145073, 2.98077717013, 2.8822085612
7221, 2.11914626939, 2.60818002386, 3.02193249105
7222, 2.53500088919, 2.89714387336, 2.91357104749
7223, 2.21812577804, 2.53500088919, 3.04937466655
7224, 2.6387969828, 2.81471678165, 2.94448120688
7225, 2.30894735995, 2.46287718395, 3.07642105602
7226, -2.66732534685, 2.84514703664, 3.11089155105
7227, -2.33390967849, 2.48950365706, 3.22203010717
7228, -2.56406386038, 2.93035869757, 3.08426290701
7229, -2.24355587783, 2.56406386038, 3.19873004363
7230, -2.45130350811, 3.01698893306, 3.05719095842
7231, -2.1448905696, 2.63986531643, 3.17504208862
7232, -2.32834200035, 3.10445600047, 3.02985749985
7233, -2.03729925031, 2.71639900041, 3.15112531237
7234, -2.19452053944, 3.19202987554, 3.00249066389
7235, -1.92020547201, 2.7930261411, 3.12717933091
7236, -2.04926207831, 3.2788193253, 2.97536896084
7237, -1.79310431852, 2.86896690964, 3.10344784074
7238, -1.89211799242, 3.36376531986, 2.94882333754
7239, -1.65560324337, 2.94329465487, 3.08022042035
7240, -1.72282208659, 3.44564417317, 2.92323619588
7241, -1.50746932576, 3.01493865153, 3.0578316714
7242, -1.54134927118, 3.5230840484, 2.89903623487
7243, -1.34868061228, 3.08269854235, 3.03665670551
7244, -1.34797429512, 3.59459812033, 2.8766880874
7245, -1.17947750823, 3.14527335529, 3.01710207647
7246, -1.14332390095, 3.65863648304, 2.85667609905
7247, -1.00040841333, 3.20130692266, 2.99959158667
7248, -0.928414165097, 3.71365666039, 2.83948229363
7249, -0.81236239446, 3.24944957784, 2.98454700693
7250, -0.704664263418, 3.75820940489, 2.82555956097
7251, -0.61658123049, 3.28843322928, 2.97236461585
7252, -0.473879102207, 3.79103281766, 2.81530224448
7253, -0.414644214431, 3.31715371545, 2.96338946392
7254, -0.23819653367, 3.81114453872, 2.80901733165
7255, -0.208421966961, 3.33475147138, 2.95789016519
7256, 0, 3.81791991214, 2.80690002746
7257, 0, 3.34067992312, 2.95603752402
7258, 0.23819653367, 3.81114453872, 2.80901733165
7259, 0.208421966961, 3.33475147138, 2.95789016519
7260, 0.473879102207, 3.79103281766, 2.81530224448
7261, 0.414644214431, 3.31715371545, 2.96338946392
7262, 0.704664263418, 3.75820940489, 2.82555956097
7263, 0.61658123049, 3.28843322928, 2.97236461585
7264, 0.928414165097, 3.71365666039, 2.83948229363
7265, 0.81236239446, 3.24944957784, 2.98454700693
7266, 1.14332390095, 3.65863648304, 2.85667609905
7267, 1.00040841333, 3.20130692266, 2.99959158667
7268, 1.34797429512, 3.59459812033, 2.8766880874
7269, 1.17947750823, 3.14527335529, 3.01710207647
7270, 1.54134927118, 3.5230840484, 2.89903623487
7271, 1.34868061228, 3.08269854235, 3.03665670551
7272, 1.72282208659, 3.44564417317, 2.92323619588
7273, 1.50746932576, 3.01493865153, 3.0578316714
7274, 1.89211799242, 3.36376531986, 2.94882333754
7275, 1.65560324337, 2.94329465487, 3.08022042035
7276, 2.04926207831, 3.2788193253, 2.97536896084
7277, 1.79310431852, 2.86896690964, 3.10344784074
7278, 2.19452053944, 3.19202987554, 3.00249066389
7279, 1.92020547201, 2.7930261411, 3.12717933091
7280, 2.32834200035, 3.10445600047, 3.02985749985
7281, 2.03729925031, 2.71639900041, 3.15112531237
7282, 2.45130350811, 3.01698893306, 3.05719095842
7283, 2.1448905696, 2.63986531643, 3.17504208862
7284, 2.56406386038, 2.93035869757, 3.08426290701
7285, 2.24355587783, 2.56406386038, 3.19873004363
7286, 2.66732534685, 2.84514703664, 3.11089155105
7287, 2.33390967849, 2.48950365706, 3.22203010717
7288, -2.6913678241, 2.8707923457, 3.28230191357
7289, -2.35494684609, 2.51194330249, 3.37201417438
7290, -2.58860091572, 2.95840104653, 3.26039973837
7291, -2.26502580125, 2.58860091572, 3.35284977107
7292, -2.47619047619, 3.04761904762, 3.2380952381
7293, -2.16666666667, 2.66666666667, 3.33333333333
7294, -2.35339362166, 3.13785816221, 3.21553545945
7295, -2.05921941895, 2.74562589193, 3.31359352702
7296, -2.21950639814, 3.22837294275, 3.19290676431
7297, -1.94206809838, 2.82482632491, 3.29379341877
7298, -2.07390338946, 3.31824542314, 3.17043864422
7299, -1.81466546578, 2.90346474525, 3.27413381369
7300, -1.91608666348, 3.40637629064, 3.14840592734
7301, -1.67657583055, 2.98057925431, 3.25485518642
7302, -1.74574312189, 3.49148624378, 3.12712843906
7303, -1.52752523165, 3.0550504633, 3.23623738417
7304, -1.56280760212, 3.57213166199, 3.1069670845
7305, -1.36745665186, 3.12561520424, 3.21859619894
7306, -1.36752691752, 3.64673844671, 3.08831538832
7307, -1.19658605283, 3.19089614087, 3.20227596478
7308, -1.16051770637, 3.71365666039, 3.0715858349
7309, -1.01545299307, 3.24944957784, 3.18763760554
7310, -0.942809041582, 3.77123616633, 3.05719095842
7311, -0.824957911384, 3.29983164554, 3.17504208862
7312, -0.715859983526, 3.81791991214, 3.04552002196
7313, -0.626377485585, 3.34067992312, 3.16483001922
7314, -0.481543412343, 3.85234729874, 3.03691317531
7315, -0.4213504858, 3.3708038864, 3.1572990284
7316, -0.242091013068, 3.87345620908, 3.03163594773
7317, -0.211829636434, 3.38927418295, 3.15268145426
7318, 0, 3.88057000058, 3.02985749985
7319, 0, 3.39549875051, 3.15112531237
7320, 0.242091013068, 3.87345620908, 3.03163594773
7321, 0.211829636434, 3.38927418295, 3.15268145426
7322, 0.481543412343, 3.85234729874, 3.03691317531
7323, 0.4213504858, 3.3708038864, 3.1572990284
7324, 0.715859983526, 3.81791991214, 3.04552002196
7325, 0.626377485585, 3.34067992312, 3.16483001922
7326, 0.942809041582, 3.77123616633, 3.05719095842
7327, 0.824957911384, 3.29983164554, 3.17504208862
7328, 1.16051770637, 3.71365666039, 3.0715858349
7329, 1.01545299307, 3.24944957784, 3.18763760554
7330, 1.36752691752, 3.64673844671, 3.08831538832
7331, 1.19658605283, 3.19089614087, 3.20227596478
7332, 1.56280760212, 3.57213166199, 3.1069670845
7333, 1.36745665186, 3.12561520424, 3.21859619894
7334, 1.74574312189, 3.49148624378, 3.12712843906
7335, 1.52752523165, 3.0550504633, 3.23623738417
7336, 1.91608666348, 3.40637629064, 3.14840592734
7337, 1.67657583055, 2.98057925431, 3.25485518642
7338, 2.07390338946, 3.31824542314, 3.17043864422
7339, 1.81466546578, 2.90346474525, 3.27413381369
7340, 2.21950639814, 3.22837294275, 3.19290676431
7341, 1.94206809838, 2.82482632491, 3.29379341877
7342, 2.35339362166, 3.13785816221, 3.21553545945
7343, 2.05921941895, 2.74562589193, 3.31359352702
7344, 2.47619047619, 3.04761904762, 3.2380952381
7345, 2.16666666667, 2.66666666667, 3.33333333333
7346, 2.58860091572, 2.95840104653, 3.26039973837
7347, 2.26502580125, 2.58860091572, 3.35284977107
7348, 2.6913678241, 2.8707923457, 3.28230191357
7349, 2.35494684609, 2.51194330249, 3.37201417438
7350, -2.71052370872, 2.8912252893, 3.45789525826
7351, -2.37170824513, 2.52982212813, 3.52565835097
7352, -2.60818002386, 2.98077717013, 3.4411042806
7353, -2.28215752088, 2.60818002386, 3.51096624553
7354, -2.49607987583, 3.07209830872, 3.42398156712
7355, -2.18406989135, 2.68808602013, 3.49598387123
7356, -2.37344724688, 3.16459632918, 3.40663818828
7357, -2.07676634102, 2.76902178803, 3.48080841474
7358, -2.23954103366, 3.25751423078, 3.38921608173
7359, -1.95959840445, 2.85032495193, 3.46556407151
7360, -2.09369569036, 3.34991310458, 3.37189129289
7361, -1.83198372907, 2.93117396651, 3.45040488128
7362, -1.93537199005, 3.44066131565, 3.35487600332
7363, -1.6934504913, 3.01057865119, 3.4355165029
7364, -1.76421710854, 3.52843421709, 3.3384185843
7365, -1.54368996998, 3.08737993995, 3.42111626126
7366, -1.58013141435, 3.61172894709, 3.32280082242
7367, -1.38261498756, 3.16026282871, 3.40745071962
7368, -1.38333700249, 3.68889867331, 3.30833149875
7369, -1.21041987718, 3.22778633914, 3.39479006141
7370, -1.17444043903, 3.75820940489, 3.29533573658
7371, -1.02763538415, 3.28843322928, 3.38341876951
7372, -0.954479978035, 3.81791991214, 3.28414001647
7373, -0.835169980781, 3.34067992312, 3.37362251441
7374, -0.724946511996, 3.86638139731, 3.275053488
7375, -0.634328197997, 3.38308372265, 3.365671802
7376, -0.48776860868, 3.90214886944, 3.26834708698
7377, -0.426797532595, 3.41438026076, 3.35980370111
7378, -0.245255735794, 3.9240917727, 3.26423279262
7379, -0.21459876882, 3.43358030112, 3.35620369354
7380, 0, 3.93148874774, 3.2628458598
7381, 0, 3.44005265427, 3.35499012732
7382, 0.245255735794, 3.9240917727, 3.26423279262
7383, 0.21459876882, 3.43358030112, 3.35620369354
7384, 0.48776860868, 3.90214886944, 3.26834708698
7385, 0.426797532595, 3.41438026076, 3.35980370111
7386, 0.724946511996, 3.86638139731, 3.275053488
7387, 0.634328197997, 3.38308372265, 3.365671802
7388, 0.954479978035, 3.81791991214, 3.28414001647
7389, 0.835169980781, 3.34067992312, 3.37362251441
7390, 1.17444043903, 3.75820940489, 3.29533573658
7391, 1.02763538415, 3.28843322928, 3.38341876951
7392, 1.38333700249, 3.68889867331, 3.30833149875
7393, 1.21041987718, 3.22778633914, 3.39479006141
7394, 1.58013141435, 3.61172894709, 3.32280082242
7395, 1.38261498756, 3.16026282871, 3.40745071962
7396, 1.76421710854, 3.52843421709, 3.3384185843
7397, 1.54368996998, 3.08737993995, 3.42111626126
7398, 1.93537199005, 3.44066131565, 3.35487600332
7399, 1.6934504913, 3.01057865119, 3.4355165029
7400, 2.09369569036, 3.34991310458, 3.37189129289
7401, 1.83198372907, 2.93117396651, 3.45040488128
7402, 2.23954103366, 3.25751423078, 3.38921608173
7403, 1.95959840445, 2.85032495193, 3.46556407151
7404, 2.37344724688, 3.16459632918, 3.40663818828
7405, 2.07676634102, 2.76902178803, 3.48080841474
7406, 2.49607987583, 3.07209830872, 3.42398156712
7407, 2.18406989135, 2.68808602013, 3.49598387123
7408, 2.60818002386, 2.98077717013, 3.4411042806
7409, 2.28215752088, 2.60818002386, 3.51096624553
7410, 2.71052370872, 2.8912252893, 3.45789525826
7411, 2.37170824513, 2.52982212813, 3.52565835097
7412, -2.72445965512, 2.90609029879, 3.63673871265
7413, -2.38390219823, 2.54282901144, 3.68214637357
7414, -2.62244027243, 2.99707459706, 3.62536567537
7415, -2.29463523838, 2.62244027243, 3.67219496595
7416, -2.51058365784, 3.08994911735, 3.61375636033
7417, -2.19676070061, 2.70370547768, 3.66203681529
7418, -2.3880892565, 3.18411900867, 3.60198512392
7419, -2.08957809944, 2.78610413259, 3.65173698343
7420, -2.25418828615, 3.2788193253, 3.59014758434
7421, -1.97241475038, 2.86896690964, 3.6413791363
7422, -2.10818510678, 3.37309617085, 3.57836297864
7423, -1.84466196843, 2.95145914949, 3.63106760631
7424, -1.94950929987, 3.46579431087, 3.56677571114
7425, -1.70582063738, 3.03257002201, 3.62092874725
7426, -1.77777777778, 3.55555555556, 3.55555555556
7427, -1.55555555556, 3.11111111111, 3.61111111111
7428, -1.59286434717, 3.64083279353, 3.54489590081
7429, -1.39375630377, 3.18572869434, 3.60178391321
7430, -1.39497166493, 3.7199244398, 3.53500944502
7431, -1.22060020681, 3.25493388483, 3.5931332644
7432, -1.18469775552, 3.79103281766, 3.52612089779
7433, -1.03661053608, 3.31715371545, 3.58535578557
7434, -0.963086824686, 3.85234729874, 3.51845658766
7435, -0.8427009716, 3.3708038864, 3.5786495142
7436, -0.73165291302, 3.90214886944, 3.51223139132
7437, -0.640196298892, 3.41438026076, 3.57320246741
7438, -0.492365963917, 3.93892771134, 3.50763403608
7439, -0.430820218428, 3.44656174742, 3.56917978157
7440, -0.247593784236, 3.96150054778, 3.50481243153
7441, -0.216644561207, 3.4663129793, 3.56671087759
7442, 0, 3.96911150685, 3.50386106164
7443, 0, 3.4729725685, 3.56587842894
7444, 0.247593784236, 3.96150054778, 3.50481243153
7445, 0.216644561207, 3.4663129793, 3.56671087759
7446, 0.492365963917, 3.93892771134, 3.50763403608
7447, 0.430820218428, 3.44656174742, 3.56917978157
7448, 0.73165291302, 3.90214886944, 3.51223139132
7449, 0.640196298892, 3.41438026076, 3.57320246741
7450, 0.963086824686, 3.85234729874, 3.51845658766
7451, 0.8427009716, 3.3708038864, 3.5786495142
7452, 1.18469775552, 3.79103281766, 3.52612089779
7453, 1.03661053608, 3.31715371545, 3.58535578557
7454, 1.39497166493, 3.7199244398, 3.53500944502
7455, 1.22060020681, 3.25493388483, 3.5931332644
7456, 1.59286434717, 3.64083279353, 3.54489590081
7457, 1.39375630377, 3.18572869434, 3.60178391321
7458, 1.77777777778, 3.55555555556, 3.55555555556
7459, 1.55555555556, 3.11111111111, 3.61111111111
7460, 1.94950929987, 3.46579431087, 3.56677571114
7461, 1.70582063738, 3.03257002201, 3.62092874725
7462, 2.10818510678, 3.37309617085, 3.57836297864
7463, 1.84466196843, 2.95145914949, 3.63106760631
7464, 2.25418828615, 3.2788193253, 3.59014758434
7465, 1.97241475038, 2.86896690964, 3.6413791363
7466, 2.3880892565, 3.18411900867, 3.60198512392
7467, 2.08957809944, 2.78610413259, 3.65173698343
7468, 2.51058365784, 3.08994911735, 3.61375636033
7469, 2.19676070061, 2.70370547768, 3.66203681529
7470, 2.62244027243, 2.99707459706, 3.62536567537
7471, 2.29463523838, 2.62244027243, 3.67219496595
7472, 2.72445965512, 2.90609029879, 3.63673871265
7473, 2.38390219823, 2.54282901144, 3.68214637357
7474, -2.73292511205, 2.91512011952, 3.81780499253
7475, -2.39130947304, 2.55073010458, 3.84057936846
7476, -2.63110952012, 3.0069823087, 3.81206360571
7477, -2.3022208301, 2.63110952012, 3.83555565499
7478, -2.51940823218, 3.10081013191, 3.80619936676
7479, -2.20448220316, 2.71320886542, 3.83042444591
7480, -2.39700561331, 3.19600748441, 3.80024953222
7481, -2.09737991164, 2.79650654886, 3.8252183407
7482, -2.26311579944, 3.29180479919, 3.79426220005
7483, -1.98022632451, 2.88032919929, 3.81997942504
7484, -2.1170244961, 3.38723919376, 3.78829755039
7485, -1.85239643409, 2.96383429454, 3.81476035659
7486, -1.95814185559, 3.48114107661, 3.78242868271
7487, -1.71337412364, 3.04599844203, 3.80962509737
7488, -1.786065831, 3.57213166199, 3.77674177113
7489, -1.56280760212, 3.12561520424, 3.80464904973
7490, -1.60065346133, 3.65863648304, 3.77133521981
7491, -1.40057177866, 3.20130692266, 3.79991831733
7492, -1.40209497081, 3.73891992216, 3.76631750487
7493, -1.22683309946, 3.27155493189, 3.79552781676
7494, -1.19098266835, 3.81114453872, 3.76180346633
7495, -1.04210983481, 3.33475147138, 3.79157803304
7496, -0.96836405227, 3.87345620908, 3.75790898693
7497, -0.847318545736, 3.38927418295, 3.78817036357
7498, -0.735767207382, 3.9240917727, 3.75474426421
7499, -0.643796306459, 3.43358030112, 3.78540123118
7500, -0.495187568472, 3.96150054778, 3.75240621576
7501, -0.433289122413, 3.4663129793, 3.78335543879
7502, -0.249029122546, 3.98446596073, 3.75097087745
7503, -0.217900482228, 3.48640771564, 3.78209951777
7504, 0, 3.99221031393, 3.75048685538
7505, 0, 3.49318402469, 3.78167599846
7506, 0.249029122546, 3.98446596073, 3.75097087745
7507, 0.217900482228, 3.48640771564, 3.78209951777
7508, 0.495187568472, 3.96150054778, 3.75240621576
7509, 0.433289122413, 3.4663129793, 3.78335543879
7510, 0.735767207382, 3.9240917727, 3.75474426421
7511, 0.643796306459, 3.43358030112, 3.78540123118
7512, 0.96836405227, 3.87345620908, 3.75790898693
7513, 0.847318545736, 3.38927418295, 3.78817036357
7514, 1.19098266835, 3.81114453872, 3.76180346633
7515, 1.04210983481, 3.33475147138, 3.79157803304
7516, 1.40209497081, 3.73891992216, 3.76631750487
7517, 1.22683309946, 3.27155493189, 3.79552781676
7518, 1.60065346133, 3.65863648304, 3.77133521981
7519, 1.40057177866, 3.20130692266, 3.79991831733
7520, 1.786065831, 3.57213166199, 3.77674177113
7521, 1.56280760212, 3.12561520424, 3.80464904973
7522, 1.95814185559, 3.48114107661, 3.78242868271
7523, 1.71337412364, 3.04599844203, 3.80962509737
7524, 2.1170244961, 3.38723919376, 3.78829755039
7525, 1.85239643409, 2.96383429454, 3.81476035659
7526, 2.26311579944, 3.29180479919, 3.79426220005
7527, 1.98022632451, 2.88032919929, 3.81997942504
7528, 2.39700561331, 3.19600748441, 3.80024953222
7529, 2.09737991164, 2.79650654886, 3.8252183407
7530, 2.51940823218, 3.10081013191, 3.80619936676
7531, 2.20448220316, 2.71320886542, 3.83042444591
7532, 2.63110952012, 3.0069823087, 3.81206360571
7533, 2.3022208301, 2.63110952012, 3.83555565499
7534, 2.73292511205, 2.91512011952, 3.81780499253
7535, 2.39130947304, 2.55073010458, 3.84057936846
7536, -2.73576451553, 2.91814881656, 4
7537, -2.39379395108, 2.55338021449, 4
7538, -2.63401843147, 3.01030677883, 4
7539, -2.30476612754, 2.63401843147, 4
7540, -2.52237050038, 3.10445600047, 4
7541, -2.20707418783, 2.71639900041, 4
7542, -2.4, 3.2, 4
7543, -2.1, 2.8, 4
7544, -2.26611529155, 3.2961676968, 4
7545, -1.9828508801, 2.8841467347, 4
7546, -2.11999576001, 3.39199321602, 4
7547, -1.85499629001, 2.96799406402, 4
7548, -1.96104495853, 3.4863021485, 4
7549, -1.71591433871, 3.05051437994, 4
7550, -1.788854382, 3.577708764, 4
7551, -1.56524758425, 3.1304951685, 4
7552, -1.60327533608, 3.66462933961, 4
7553, -1.40286591907, 3.20655067216, 4
7554, -1.40449376635, 3.74531671028, 4
7555, -1.22893204556, 3.27715212149, 4
7556, -1.19309997254, 3.81791991214, 4
7557, -1.04396247598, 3.34067992312, 4
7558, -0.970142500145, 3.88057000058, 4
7559, -0.848874687627, 3.39549875051, 4
7560, -0.737154140201, 3.93148874774, 4
7561, -0.645009872676, 3.44005265427, 4
7562, -0.496138938357, 3.96911150685, 4
7563, -0.434121571062, 3.4729725685, 4
7564, -0.249513144621, 3.99221031393, 4
7565, -0.218324001543, 3.49318402469, 4
7566, 0, 4, 4
7567, 0, 3.5, 4
7568, 0.249513144621, 3.99221031393, 4
7569, 0.218324001543, 3.49318402469, 4
7570, 0.496138938357, 3.96911150685, 4
7571, 0.434121571062, 3.4729725685, 4
7572, 0.737154140201, 3.93148874774, 4
7573, 0.645009872676, 3.44005265427, 4
7574, 0.970142500145, 3.88057000058, 4
7575, 0.848874687627, 3.39549875051, 4
7576, 1.19309997254, 3.81791991214, 4
7577, 1.04396247598, 3.34067992312, 4
7578, 1.40449376635, 3.74531671028, 4
7579, 1.22893204556, 3.27715212149, 4
7580, 1.60327533608, 3.66462933961, 4
7581, 1.40286591907, 3.20655067216, 4
7582, 1.788854382, 3.577708764, 4
7583, 1.56524758425, 3.1304951685, 4
7584, 1.96104495853, 3.4863021485, 4
7585, 1.71591433871, 3.05051437994, 4
7586, 2.11999576001, 3.39199321602, 4
7587, 1.85499629001, 2.96799406402, 4
7588, 2.26611529155, 3.2961676968, 4
7589, 1.9828508801, 2.8841467347, 4
7590, 2.4, 3.2, 4
7591, 2.1, 2.8, 4
7592, 2.52237050038, 3.10445600047, 4
7593, 2.20707418783, 2.71639900041, 4
7594, 2.63401843147, 3.01030677883, 4
7595, 2.30476612754, 2.63401843147, 4
7596, 2.73576451553, 2.91814881656, 4
7597, 2.39379395108, 2.55338021449, 4
*ELEMENT, TYPE=C3D8, ELSET=SHEET
1, 1, 2, 23, 22, 442, 443, 464, 463
2, 2, 3, 24, 23, 443, 444, 465, 464
3, 3, 4, 25, 24, 444, 445, 466, 465
4, 4, 5, 26, 25, 445, 446, 467, 466
5, 5, 6, 27, 26, 446, 447, 468, 467
6, 6, 7, 28, 27, 447, 448, 469, 468
7, 7, 8, 29, 28, 448, 449, 470, 469
8, 8, 9, 30, 29, 449, 450, 471, 470
9, 9, 10, 31, 30, 450, 451, 472, 471
10, 10, 11, 32, 31, 451, 452, 473, 472
11, 11, 12, 33, 32, 452, 453, 474, 473
12, 12, 13, 34, 33, 453, 454, 475, 474
13, 13, 14, 35, 34, 454, 455, 476, 475
14, 14, 15, 36, 35, 455, 456, 477, 476
15, 15, 16, 37, 36, 456, 457, 478, 477
16, 16, 17, 38, 37, 457, 458, 479, 478
17, 17, 18, 39, 38, 458, 459, 480, 479
18, 18, 19, 40, 39, 459, 460, 481, 480
19, 19, 20, 41, 40, 460, 461, 482, 481
20, 20, 21, 42, 41, 461, 462, 483, 482
21, 22, 23, 44, 43, 463, 464, 485, 484
22, 23, 24, 45, 44, 464, 465, 486, 485
23, 24, 25, 46, 45, 465, 466, 487, 486
24, 25, 26, 47, 46, 466, 467, 488, 487
25, 26, 27, 48, 47, 467, 468, 489, 488
26, 27, 28, 49, 48, 468, 469, 490, 489
27, 28, 29, 50, 49, 469, 470, 491, 490
28, 29, 30, 51, 50, 470, 471, 492, 491
29, 30, 31, 52, 51, 471, 472, 493, 492
30, 31, 32, 53, 52, 472, 473, 494, 493
31, 32, 33, 54, 53, 473, 474, 495, 494
32, 33, 34, 55, 54, 474, 475, 496, 495
33, 34, 35, 56, 55, 475, 476, 497, 496
34, 35, 36, 57, 56, 476, 477, 498, 497
35, 36, 37, 58, 57, 477, 478, 499, 498
36, 37, 38, 59, 58, 478, 479, 500, 499
37, 38, 39, 60, 59, 479, 480, 501, 500
38, 39, 40, 61, 60, 480, 481, 502, 501
39, 40, 41, 62, 61, 481, 482, 503, 502
40, 41, 42, 63, 62, 482, 483, 504, 503
41, 43, 44, 65, 64, 484, 485, 506, 505
42, 44, 45, 66, 65, 485, 486, 507, 506
43, 45, 46, 67, 66, 486, 487, 508, 507
44, 46, 47, 68, 67, 487, 488, 509, 508
45, 47, 48, 69, 68, 488, 489, 510, 509
46, 48, 49, 70, 69, 489, 490, 511, 510
47, 49, 50, 71, 70, 490, 491, 512, 511
48, 50, 51, 72, 71, 491, 492, 513, 512
49, 51, 52, 73, 72, 492, 493, 514, 513
50, 52, 53, 74, 73, 493, 494, 515, 514
51, 53, 54, 75, 74, 494, 495, 516, 515
52, 54, 55, 76, 75, 495, 496, 517, 516
53, 55, 56, 77, 76, 496, 497, 518, 517
54, 56, 57, 78, 77, 497, 498, 519, 518
55, 57, 58, 79, 78, 498, 499, 520, 519
56, 58, 59, 80, 79, 499, 500, 521, 520
57, 59, 60, 81, 80, 500, 501, 522, 521
58, 60, 61, 82, 81, 501, 502, 523, 522
59, 61, 62, 83, 82, 502, 503, 524, 523
60, 62, 63, 84, 83, 503, 504, 525, 524
61, 64, 65, 86, 85, 505, 506, 527, 526
62, 65, 66, 87, 86, 506, 507, 528, 527
63, 66, 67, 88, 87, 507, 508, 529, 528
64, 67, 68, 89, 88, 508, 509, 530, 529
65, 68, 69, 90, 89, 509, 510, 531, 530
66, 69, 70, 91, 90, 510, 511, 532, 531
67, 70, 71, 92, 91, 511, 512, 533, 532
68, 71, 72, 93, 92, 512, 513, 534, 533
69, 72, 73, 94, 93, 513, 514, 535, 534
70, 73, 74, 95, 94, 514, 515, 536, 535
71, 74, 75, 96, 95, 515, 516, 537, 536
72, 75, 76, 97, 96, 516, 517, 538, 537
73, 76, 77, 98, 97, 517, 518, 539, 538
74, 77, 78, 99, 98, 518, 519, 540, 539
75, 78, 79, 100, 99, 519, 520, 541, 540
76, 79, 80, 101, 100, 520, 521, 542, 541
77, 80, 81, 102, 101, 521, 522, 543, 542
78, 81, 82, 103, 102, 522, 523, 544, 543
79, 82, 83, 104, 103, 523, 524, 545, 544
80, 83, 84, 105, 104, 524, 525, 546, 545
81, 85, 86, 107, 106, 526, 527, 548, 547
82, 86, 87, 108, 107, 527, 528, 549, 548
83, 87, 88, 109, 108, 528, 529, 550, 549
84, 88, 89, 110, 109, 529, 530, 551, 550
85, 89, 90, 111, 110, 530, 531, 552, 551
86, 90, 91, 112, 111, 531, 532, 553, 552
87, 91, 92, 113, 112, 532, 533, 554, 553
88, 92, 93, 114, 113, 533, 534, 555, 554
89, 93, 94, 115, 114, 534, 535, 556, 555
90, 94, 95, 116, 115, 535, 536, 557, 556
91, 95, 96, 117, 116, 536, 537, 558, 557
92, 96, 97, 118, 117, 537, 538, 559, 558
93, 97, 98, 119, 118, 538, 539, 560, 559
94, 98, 99, 120, 119, 539, 540, 561, 560
95, 99, 100, 121, 120, 540, 541, 562, 561
96, 100, 101, 122, 121, 541, 542, 563, 562
97, 101, 102, 123, 122, 542, 543, 564, 563
98, 102, 103, 124, 123, 543, 544, 565, 564
99, 103, 104, 125, 124, 544, 545, 566, 565
100, 104, 105, 126, 125, 545, 546, 567, 566
101, 106, 107, 128, 127, 547, 548, 569, 568
102, 107, 108, 129, 128, 548, 549, 570, 569
103, 108, 109, 130, 129, 549, 550, 571, 570
104, 109, 110, 131, 130, 550, 551, 572, 571
105, 110, 111, 132, 131, 551, 552, 573, 572
106, 111, 112, 133, 132, 552, 553, 574, 573
107, 112, 113, 134, 133, 553, 554, 575, 574
108, 113, 114, 135, 134, 554, 555, 576, 575
109, 114, 115, 136, 135, 555, 556, 577, 576
110, 115, 116, 137, 136, 556, 557, 578, 577
111, 116, 117, 138, 137, 557, 558, 579, 578
112, 117, 118, 139, 138, 558, 559, 580, 579
113, 118, 119, 140, 139, 559, 560, 581, 580
114, 119, 120, 141, 140, 560, 561, 582, 581
115, 120, 121, 142, 141, 561, 562, 583, 582
116, 121, 122, 143, 142, 562, 563, 584, 583
117, 122, 123, 144, 143, 563, 564, 585, 584
118, 123, 124, 145, 144, 564, 565, 586, 585
119, 124, 125, 146, 145, 565, 566, 587, 586
120, 125, 126, 147, 146, 566, 567, 588, 587
121, 127, 128, 149, 148, 568, 569, 590, 589
122, 128, 129, 150, 149, 569, 570, 591, 590
123, 129, 130, 151, 150, 570, 571, 592, 591
124, 130, 131, 152, 151, 571, 572, 593, 592
125, 131, 132, 153, 152, 572, 573, 594, 593
126, 132, 133, 154, 153, 573, 574, 595, 594
127, 133, 134, 155, 154, 574, 575, 596, 595
128, 134, 135, 156, 155, 575, 576, 597, 596
129, 135, 136, 157, 156, 576, 577, 598, 597
130, 136, 137, 158, 157, 577, 578, 599, 598
131, 137, 138, 159, 158, 578, 579, 600, 599
132, 138, 139, 160, 159, 579, 580, 601, 600
133, 139, 140, 161, 160, 580, 581, 602, 601
134, 140, 141, 162, 161, 581, 582, 603, 602
135, 141, 142, 163, 162, 582, 583, 604, 603
136, 142, 143, 164, 163, 583, 584, 605, 604
137, 143, 144, 165, 164, 584, 585, 606, 605
138, 144, 145, 166, 165, 585, 586, 607, 606
139, 145, 146, 167, 166, 586, 587, 608, 607
140, 146, 147, 168, 167, 587, 588, 609, 608
141, 148, 149, 170, 169, 589, 590, 611, 610
142, 149, 150, 171, 170, 590, 591, 612, 611
143, 150, 151, 172, 171, 591, 592, 613, 612
144, 151, 152, 173, 172, 592, 593, 614, 613
145, 152, 153, 174, 173, 593, 594, 615, 614
146, 153, 154, 175, 174, 594, 595, 616, 615
147, 154, 155, 176, 175, 595, 596, 617, 616
148, 155, 156, 177, 176, 596, 597, 618, 617
149, 156, 157, 178, 177, 597, 598, 619, 618
150, 157, 158, 179, 178, 598, 599, 620, 619
151, 158, 159, 180, 179, 599, 600, 621, 620
152, 159, 160, 181, 180, 600, 601, 622, 621
153, 160, 161, 182, 181, 601, 602, 623, 622
154, 161, 162, 183, 182, 602, 603, 624, 623
155, 162, 163, 184, 183, 603, 604, 625, 624
156, 163, 164, 185, 184, 604, 605, 626, 625
157, 164, 165, 186, 185, 605, 606, 627, 626
158, 165, 166, 187, 186, 606, 607, 628, 627
159, 166, 167, 188, 187, 607, 608, 629, 628
160, 167, 168, 189, 188, 608, 609, 630, 629
161, 169, 170, 191, 190, 610, 611, 632, 631
162, 170, 171, 192, 191, 611, 612, 633, 632
163, 171, 172, 193, 192, 612, 613, 634, 633
164, 172, 173, 194, 193, 613, 614, 635, 634
165, 173, 174, 195, 194, 614, 615, 636, 635
166, 174, 175, 196, 195, 615, 616, 637, 636
167, 175, 176, 197, 196, 616, 617, 638, 637
168, 176, 177, 198, 197, 617, 618, 639, 638
169, 177, 178, 199, 198, 618, 619, 640, 639
170, 178, 179, 200, 199, 619, 620, 641, 640
171, 179, 180, 201, 200, 620, 621, 642, 641
172, 180, 181, 202, 201, 621, 622, 643, 642
173, 181, 182, 203, 202, 622, 623, 644, 643
174, 182, 183, 204, 203, 623, 624, 645, 644
175, 183, 184, 205, 204, 624, 625, 646, 645
176, 184, 185, 206, 205, 625, 626, 647, 646
177, 185, 186, 207, 206, 626, 627, 648, 647
178, 186, 187, 208, 207, 627, 628, 649, 648
179, 187, 188, 209, 208, 628, 629, 650, 649
180, 188, 189, 210, 209, 629, 630, 651, 650
181, 190, 191, 212, 211, 631, 632, 653, 652
182, 191, 192, 213, 212, 632, 633, 654, 653
183, 192, 193, 214, 213, 633, 634, 655, 654
184, 193, 194, 215, 214, 634, 635, 656, 655
185, 194, 195, 216, 215, 635, 636, 657, 656
186, 195, 196, 217, 216, 636, 637, 658, 657
187, 196, 197, 218, 217, 637, 638, 659, 658
188, 197, 198, 219, 218, 638, 639, 660, 659
189, 198, 199, 220, 219, 639, 640, 661, 660
190, 199, 200, 221, 220, 640, 641, 662, 661
191, 200, 201, 222, 221, 641, 642, 663, 662
192, 201, 202, 223, 222, 642, 643, 664, 663
193, 202, 203, 224, 223, 643, 644, 665, 664
194, 203, 204, 225, 224, 644, 645, 666, 665
195, 204, 205, 226, 225, 645, 646, 667, 666
196, 205, 206, 227, 226, 646, 647, 668, 667
197, 206, 207, 228, 227, 647, 648, 669, 668
198, 207, 208, 229, 228, 648, 649, 670, 669
199, 208, 209, 230, 229, 649, 650, 671, 670
200, 209, 210, 231, 230, 650, 651, 672, 671
201, 211, 212, 233, 232, 652, 653, 674, 673
202, 212, 213, 234, 233, 653, 654, 675, 674
203, 213, 214, 235, 234, 654, 655, 676, 675
204, 214, 215, 236, 235, 655, 656, 677, 676
205, 215, 216, 237, 236, 656, 657, 678, 677
206, 216, 217, 238, 237, 657, 658, 679, 678
207, 217, 218, 239, 238, 658, 659, 680, 679
208, 218, 219, 240, 239, 659, 660, 681, 680
209, 219, 220, 241, 240, 660, 661, 682, 681
210, 220, 221, 242, 241, 661, 662, 683, 682
211, 221, 222, 243, 242, 662, 663, 684, 683
212, 222, 223, 244, 243, 663, 664, 685, 684
213, 223, 224, 245, 244, 664, 665, 686, 685
214, 224, 225, 246, 245, 665, 666, 687, 686
215, 225, 226, 247, 246, 666, 667, 688, 687
216, 226, 227, 248, 247, 667, 668, 689, 688
217, 227, 228, 249, 248, 668, 669, 690, 689
218, 228, 229, 250, 249, 669, 670, 691, 690
219, 229, 230, 251, 250, 670, 671, 692, 691
220, 230, 231, 252, 251, 671, 672, 693, 692
221, 232, 233, 254, 253, 673, 674, 695, 694
222, 233, 234, 255, 254, 674, 675, 696, 695
223, 234, 235, 256, 255, 675, 676, 697, 696
224, 235, 236, 257, 256, 676, 677, 698, 697
225, 236, 237, 258, 257, 677, 678, 699, 698
226, 237, 238, 259, 258, 678, 679, 700, 699
227, 238, 239, 260, 259, 679, 680, 701, 700
228, 239, 240, 261, 260, 680, 681, 702, 701
229, 240, 241, 262, 261, 681, 682, 703, 702
230, 241, 242, 263, 262, 682, 683, 704, 703
231, 242, 243, 264, 263, 683, 684, 705, 704
232, 243, 244, 265, 264, 684, 685, 706, 705
233, 244, 245, 266, 265, 685, 686, 707, 706
234, 245, 246, 267, 266, 686, 687, 708, 707
235, 246, 247, 268, 267, 687, 688, 709, 708
236, 247, 248, 269, 268, 688, 689, 710, 709
237, 248, 249, 270, 269, 689, 690, 711, 710
238, 249, 250, 271, 270, 690, 691, 712, 711
239, 250, 251, 272, 271, 691, 692, 713, 712
240, 251, 252, 273, 272, 692, 693, 714, 713
241, 253, 254, 275, 274, 694, 695, 716, 715
242, 254, 255, 276, 275, 695, 696, 717, 716
243, 255, 256, 277, 276, 696, 697, 718, 717
244, 256, 257, 278, 277, 697, 698, 719, 718
245, 257, 258, 279, 278, 698, 699, 720, 719
246, 258, 259, 280, 279, 699, 700, 721, 720
247, 259, 260, 281, 280, 700, 701, 722, 721
248, 260, 261, 282, 281, 701, 702, 723, 722
249, 261, 262, 283, 282, 702, 703, 724, 723
250, 262, 263, 284, 283, 703, 704, 725, 724
251, 263, 264, 285, 284, 704, 705, 726, 725
252, 264, 265, 286, 285, 705, 706, 727, 726
253, 265, 266, 287, 286, 706, 707, 728, 727
254, 266, 267, 288, 287, 707, 708, 729, 728
255, 267, 268, 289, 288, 708, 709, 730, 729
256, 268, 269, 290, 289, 709, 710, 731, 730
257, 269, 270, 291, 290, 710, 711, 732, 731
258, 270, 271, 292, 291, 711, 712, 733, 732
259, 271, 272, 293, 292, 712, 713, 734, 733
260, 272, 273, 294, 293, 713, 714, 735, 734
261, 274, 275, 296, 295, 715, 716, 737, 736
262, 275, 276, 297, 296, 716, 717, 738, 737
263, 276, 277, 298, 297, 717, 718, 739, 738
264, 277, 278, 299, 298, 718, 719, 740, 739
265, 278, 279, 300, 299, 719, 720, 741, 740
266, 279, 280, 301, 300, 720, 721, 742, 741
267, 280, 281, 302, 301, 721, 722, 743, 742
268, 281, 282, 303, 302, 722, 723, 744, 743
269, 282, 283, 304, 303, 723, 724, 745, 744
270, 283, 284, 305, 304, 724, 725, 746, 745
271, 284, 285, 306, 305, 725, 726, 747, 746
272, 285, 286, 307, 306, 726, 727, 748, 747
273, 286, 287, 308, 307, 727, 728, 749, 748
274, 287, 288, 309, 308, 728, 729, 750, 749
275, 288, 289, 310, 309, 729, 730, 751, 750
276, 289, 290, 311, 310, 730, 731, 752, 751
277, 290, 291, 312, 311, 731, 732, 753, 752
278, 291, 292, 313, 312, 732, 733, 754, 753
279, 292, 293, 314, 313, 733, 734, 755, 754
280, 293, 294, 315, 314, 734, 735, 756, 755
281, 295, 296, 317, 316, 736, 737, 758, 757
282, 296, 297, 318, 317, 737, 738, 759, 758
283, 297, 298, 319, 318, 738, 739, 760, 759
284, 298, 299, 320, 319, 739, 740, 761, 760
285, 299, 300, 321, 320, 740, 741, 762, 761
286, 300, 301, 322, 321, 741, 742, 763, 762
287, 301, 302, 323, 322, 742, 743, 764, 763
288, 302, 303, 324, 323, 743, 744, 765, 764
289, 303, 304, 325, 324, 744, 745, 766, 765
290, 304, 305, 326, 325, 745, 746, 767, 766
291, 305, 306, 327, 326, 746, 747, 768, 767
292, 306, 307, 328, 327, 747, 748, 769, 768
293, 307, 308, 329, 328, 748, 749, 770, 769
294, 308, 309, 330, 329, 749, 750, 771, 770
295, 309, 310, 331, 330, 750, 751, 772, 771
296, 310, 311, 332, 331, 751, 752, 773, 772
297, 311, 312, 333, 332, 752, 753, 774, 773
298, 312, 313, 334, 333, 753, 754, 775, 774
299, 313, 314, 335, 334, 754, 755, 776, 775
300, 314, 315, 336, 335, 755, 756, 777, 776
301, 316, 317, 338, 337, 757, 758, 779, 778
302, 317, 318, 339, 338, 758, 759, 780, 779
303, 318, 319, 340, 339, 759, 760, 781, 780
304, 319, 320, 341, 340, 760, 761, 782, 781
305, 320, 321, 342, 341, 761, 762, 783, 782
306, 321, 322, 343, 342, 762, 763, 784, 783
307, 322, 323, 344, 343, 763, 764, 785, 784
308, 323, 324, 345, 344, 764, 765, 786, 785
309, 324, 325, 346, 345, 765, 766, 787, 786
310, 325, 326, 347, 346, 766, 767, 788, 787
311, 326, 327, 348, 347, 767, 768, 789, 788
312, 327, 328, 349, 348, 768, 769, 790, 789
313, 328, 329, 350, 349, 769, 770, 791, 790
314, 329, 330, 351, 350, 770, 771, 792, 791
315, 330, 331, 352, 351, 771, 772, 793, 792
316, 331, 332, 353, 352, 772, 773, 794, 793
317, 332, 333, 354, 353, 773, 774, 795, 794
318, 333, 334, 355, 354, 774, 775, 796, 795
319, 334, 335, 356, 355, 775, 776, 797, 796
320, 335, 336, 357, 356, 776, 777, 798, 797
321, 337, 338, 359, 358, 778, 779, 800, 799
322, 338, 339, 360, 359, 779, 780, 801, 800
323, 339, 340, 361, 360, 780, 781, 802, 801
324, 340, 341, 362, 361, 781, 782, 803, 802
325, 341, 342, 363, 362, 782, 783, 804, 803
326, 342, 343, 364, 363, 783, 784, 805, 804
327, 343, 344, 365, 364, 784, 785, 806, 805
328, 344, 345, 366, 365, 785, 786, 807, 806
329, 345, 346, 367, 366, 786, 787, 808, 807
330, 346, 347, 368, 367, 787, 788, 809, 808
331, 347, 348, 369, 368, 788, 789, 810, 809
332, 348, 349, 370, 369, 789, 790, 811, 810
333, 349, 350, 371, 370, 790, 791, 812, 811
334, 350, 351, 372, 371, 791, 792, 813, 812
335, 351, 352, 373, 372, 792, 793, 814, 813
336, 352, 353, 374, 373, 793, 794, 815, 814
337, 353, 354, 375, 374, 794, 795, 816, 815
338, 354, 355, 376, 375, 795, 796, 817, 816
339, 355, 356, 377, 376, 796, 797, 818, 817
340, 356, 357, 378, 377, 797, 798, 819, 818
341, 358, 359, 380, 379, 799, 800, 821, 820
342, 359, 360, 381, 380, 800, 801, 822, 821
343, 360, 361, 382, 381, 801, 802, 823, 822
344, 361, 362, 383, 382, 802, 803, 824, 823
345, 362, 363, 384, 383, 803, 804, 825, 824
346, 363, 364, 385, 384, 804, 805, 826, 825
347, 364, 365, 386, 385, 805, 806, 827, 826
348, 365, 366, 387, 386, 806, 807, 828, 827
349, 366, 367, 388, 387, 807, 808, 829, 828
350, 367, 368, 389, 388, 808, 809, 830, 829
351, 368, 369, 390, 389, 809, 810, 831, 830
352, 369, 370, 391, 390, 810, 811, 832, 831
353, 370, 371, 392, 391, 811, 812, 833, 832
354, 371, 372, 393, 392, 812, 813, 834, 833
355, 372, 373, 394, 393, 813, 814, 835, 834
356, 373, 374, 395, 394, 814, 815, 836, 835
357, 374, 375, 396, 395, 815, 816, 837, 836
358, 375, 376, 397, 396, 816, 817, 838, 837
359, 376, 377, 398, 397, 817, 818, 839, 838
360, 377, 378, 399, 398, 818, 819, 840, 839
361, 379, 380, 401, 400, 820, 821, 842, 841
362, 380, 381, 402, 401, 821, 822, 843, 842
363, 381, 382, 403, 402, 822, 823, 844, 843
364, 382, 383, 404, 403, 823, 824, 845, 844
365, 383, 384, 405, 404, 824, 825, 846, 845
366, 384, 385, 406, 405, 825, 826, 847, 846
367, 385, 386, 407, 406, 826, 827, 848, 847
368, 386, 387, 408, 407, 827, 828, 849, 848
369, 387, 388, 409, 408, 828, 829, 850, 849
370, 388, 389, 410, 409, 829, 830, 851, 850
371, 389, 390, 411, 410, 830, 831, 852, 851
372, 390, 391, 412, 411, 831, 832, 853, 852
373, 391, 392, 413, 412, 832, 833, 854, 853
374, 392, 393, 414, 413, 833, 834, 855, 854
375, 393, 394, 415, 414, 834, 835, 856, 855
376, 394, 395, 416, 415, 835, 836, 857, 856
377, 395, 396, 417, 416, 836, 837, 858, 857
378, 396, 397, 418, 417, 837, 838, 859, 858
379, 397, 398, 419, 418, 838, 839, 860, 859
380, 398, 399, 420, 419, 839, 840, 861, 860
381, 400, 401, 422, 421, 841, 842, 863, 862
382, 401, 402, 423, 422, 842, 843, 864, 863
383, 402, 403, 424, 423, 843, 844, 865, 864
384, 403, 404, 425, 424, 844, 845, 866, 865
385, 404, 405, 426, 425, 845, 846, 867, 866
386, 405, 406, 427, 426, 846, 847, 868, 867
387, 406, 407, 428, 427, 847, 848, 869, 868
388, 407, 408, 429, 428, 848, 849, 870, 869
389, 408, 409, 430, 429, 849, 850, 871, 870
390, 409, 410, 431, 430, 850, 851, 872, 871
391, 410, 411, 432, 431, 851, 852, 873, 872
392, 411, 412, 433, 432, 852, 853, 874, 873
393, 412, 413, 434, 433, 853, 854, 875, 874
394, 413, 414, 435, 434, 854, 855, 876, 875
395, 414, 415, 436, 435, 855, 856, 877, 876
396, 415, 416, 437, 436, 856, 857, 878, 877
397, 416, 417, 438, 437, 857, 858, 879, 878
398, 417, 418, 439, 438, 858, 859, 880, 879
399, 418, 419, 440, 439, 859, 860, 881, 880
400, 419, 420, 441, 440, 860, 861, 882, 881
401, 442, 443, 464, 463, 883, 884, 905, 904
402, 443, 444, 465, 464, 884, 885, 906, 905
403, 444, 445, 466, 465, 885, 886, 907, 906
404, 445, 446, 467, 466, 886, 887, 908, 907
405, 446, 447, 468, 467, 887, 888, 909, 908
406, 447, 448, 469, 468, 888, 889, 910, 909
407, 448, 449, 470, 469, 889, 890, 911, 910
408, 449, 450, 471, 470, 890, 891, 912, 911
409, 450, 451, 472, 471, 891, 892, 913, 912
410, 451, 452, 473, 472, 892, 893, 914, 913
411, 452, 453, 474, 473, 893, 894, 915, 914
412, 453, 454, 475, 474, 894, 895, 916, 915
413, 454, 455, 476, 475, 895, 896, 917, 916
414, 455, 456, 477, 476, 896, 897, 918, 917
415, 456, 457, 478, 477, 897, 898, 919, 918
416, 457, 458, 479, 478, 898, 899, 920, 919
417, 458, 459, 480, 479, 899, 900, 921, 920
418, 459, 460, 481, 480, 900, 901, 922, 921
419, 460, 461, 482, 481, 901, 902, 923, 922
420, 461, 462, 483, 482, 902, 903, 924, 923
421, 463, 464, 485, 484, 904, 905, 926, 925
422, 464, 465, 486, 485, 905, 906, 927, 926
423, 465, 466, 487, 486, 906, 907, 928, 927
424, 466, 467, 488, 487, 907, 908, 929, 928
425, 467, 468, 489, 488, 908, 909, 930, 929
426, 468, 469, 490, 489, 909, 910, 931, 930
427, 469, 470, 491, 490, 910, 911, 932, 931
428, 470, 471, 492, 491, 911, 912, 933, 932
429, 471, 472, 493, 492, 912, 913, 934, 933
430, 472, 473, 494, 493, 913, 914, 935, 934
431, 473, 474, 495, 494, 914, 915, 936, 935
432, 474, 475, 496, 495, 915, 916, 937, 936
433, 475, 476, 497, 496, 916, 917, 938, 937
434, 476, 477, 498, 497, 917, 918, 939, 938
435, 477, 478, 499, 498, 918, 919, 940, 939
436, 478, 479, 500, 499, 919, 920, 941, 940
437, 479, 480, 501, 500, 920, 921, 942, 941
438, 480, 481, 502, 501, 921, 922, 943, 942
439, 481, 482, 503, 502, 922, 923, 944, 943
440, 482, 483, 504, 503, 923, 924, 945, 944
441, 484, 485, 506, 505, 925, 926, 947, 946
442, 485, 486, 507, 506, 926, 927, 948, 947
443, 486, 487, 508, 507, 927, 928, 949, 948
444, 487, 488, 509, 508, 928, 929, 950, 949
445, 488, 489, 510, 509, 929, 930, 951, 950
446, 489, 490, 511, 510, 930, 931, 952, 951
447, 490, 491, 512, 511, 931, 932, 953, 952
448, 491, 492, 513, 512, 932, 933, 954, 953
449, 492, 493, 514, 513, 933, 934, 955, 954
450, 493, 494, 515, 514, 934, 935, 956, 955
451, 494, 495, 516, 515, 935, 936, 957, 956
452, 495, 496, 517, 516, 936, 937, 958, 957
453, 496, 497, 518, 517, 937, 938, 959, 958
454, 497, 498, 519, 518, 938, 939, 960, 959
455, 498, 499, 520, 519, 939, 940, 961, 960
456, 499, 500, 521, 520, 940, 941, 962, 961
457, 500, 501, 522, 521, 941, 942, 963, 962
458, 501, 502, 523, 522, 942, 943, 964, 963
459, 502, 503, 524, 523, 943, 944, 965, 964
460, 503, 504, 525, 524, 944, 945, 966, 965
461, 505, 506, 527, 526, 946, 947, 968, 967
462, 506, 507, 528, 527, 947, 948, 969, 968
463, 507, 508, 529, 528, 948, 949, 970, 969
464, 508, 509, 530, 529, 949, 950, 971, 970
465, 509, 510, 531, 530, 950, 951, 972, 971
466, 510, 511, 532, 531, 951, 952, 973, 972
467, 511, 512, 533, 532, 952, 953, 974, 973
468, 512, 513, 534, 533, 953, 954, 975, 974
469, 513, 514, 535, 534, 954, 955, 976, 975
470, 514, 515, 536, 535, 955, 956, 977, 976
471, 515, 516, 537, 536, 956, 957, 978, 977
472, 516, 517, 538, 537, 957, 958, 979, 978
473, 517, 518, 539, 538, 958, 959, 980, 979
474, 518, 519, 540, 539, 959, 960, 981, 980
475, 519, 520, 541, 540, 960, 961, 982, 981
476, 520, 521, 542, 541, 961, 962, 983, 982
477, 521, 522, 543, 542, 962, 963, 984, 983
478, 522, 523, 544, 543, 963, 964, 985, 984
479, 523, 524, 545, 544, 964, 965, 986, 985
480, 524, 525, 546, 545, 965, 966, 987, 986
481, 526, 527, 548, 547, 967, 968, 989, 988
482, 527, 528, 549, 548, 968, 969, 990, 989
483, 528, 529, 550, 549, 969, 970, 991, 990
484, 529, 530, 551, 550, 970, 971, 992, 991
485, 530, 531, 552, 551, 971, 972, 993, 992
486, 531, 532, 553, 552, 972, 973, 994, 993
487, 532, 533, 554, 553, 973, 974, 995, 994
488, 533, 534, 555, 554, 974, 975, 996, 995
489, 534, 535, 556, 555, 975, 976, 997, 996
490, 535, 536, 557, 556, 976, 977, 998, 997
491, 536, 537, 558, 557, 977, 978, 999, 998
492, 537, 538, 559, 558, 978, 979, 1000, 999
493, 538, 539, 560, 559, 979, 980, 1001, 1000
494, 539, 540, 561, 560, 980, 981, 1002, 1001
495, 540, 541, 562, 561, 981, 982, 1003, 1002
496, 541, 542, 563, 562, 982, 983, 1004, 1003
497, 542, 543, 564, 563, 983, 984, 1005, 1004
498, 543, 544, 565, 564, 984, 985, 1006, 1005
499, 544, 545, 566, 565, 985, 986, 1007, 1006
500, 545, 546, 567, 566, 986, 987, 1008, 1007
501, 547, 548, 569, 568, 988, 989, 1010, 1009
502, 548, 549, 570, 569, 989, 990, 1011, 1010
503, 549, 550, 571, 570, 990, 991, 1012, 1011
504, 550, 551, 572, 571, 991, 992, 1013, 1012
505, 551, 552, 573, 572, 992, 993, 1014, 1013
506, 552, 553, 574, 573, 993, 994, 1015, 1014
507, 553, 554, 575, 574, 994, 995, 1016, 1015
508, 554, 555, 576, 575, 995, 996, 1017, 1016
509, 555, 556, 577, 576, 996, 997, 1018, 1017
510, 556, 557, 578, 577, 997, 998, 1019, 1018
511, 557, 558, 579, 578, 998, 999, 1020, 1019
512, 558, 559, 580, 579, 999, 1000, 1021, 1020
513, 559, 560, 581, 580, 1000, 1001, 1022, 1021
514, 560, 561, 582, 581, 1001, 1002, 1023, 1022
515, 561, 562, 583, 582, 1002, 1003, 1024, 1023
516, 562, 563, 584, 583, 1003, 1004, 1025, 1024
517, 563, 564, 585, 584, 1004, 1005, 1026, 1025
518, 564, 565, 586, 585, 1005, 1006, 1027, 1026
519, 565, 566, 587, 586, 1006, 1007, 1028, 1027
520, 566, 567, 588, 587, 1007, 1008, 1029, 1028
521, 568, 569, 590, 589, 1009, 1010, 1031, 1030
522, 569, 570, 591, 590, 1010, 1011, 1032, 1031
523, 570, 571, 592, 591, 1011, 1012, 1033, 1032
524, 571, 572, 593, 592, 1012, 1013, 1034, 1033
525, 572, 573, 594, 593, 1013, 1014, 1035, 1034
526, 573, 574, 595, 594, 1014, 1015, 1036, 1035
527, 574, 575, 596, 595, 1015, 1016, 1037, 1036
528, 575, 576, 597, 596, 1016, 1017, 1038, 1037
529, 576, 577, 598, 597, 1017, 1018, 1039, 1038
530, 577, 578, 599, 598, 1018, 1019, 1040, 1039
531, 578, 579, 600, 599, 1019, 1020, 1041, 1040
532, 579, 580, 601, 600, 1020, 1021, 1042, 1041
533, 580, 581, 602, 601, 1021, 1022, 1043, 1042
534, 581, 582, 603, 602, 1022, 1023, 1044, 1043
535, 582, 583, 604, 603, 1023, 1024, 1045, 1044
536, 583, 584, 605, 604, 1024, 1025, 1046, 1045
537, 584, 585, 606, 605, 1025, 1026, 1047, 1046
538, 585, 586, 607, 606, 1026, 1027, 1048, 1047
539, 586, 587, 608, 607, 1027, 1028, 1049, 1048
540, 587, 588, 609, 608, 1028, 1029, 1050, 1049
541, 589, 590, 611, 610, 1030, 1031, 1052, 1051
542, 590, 591, 612, 611, 1031, 1032, 1053, 1052
543, 591, 592, 613, 612, 1032, 1033, 1054, 1053
544, 592, 593, 614, 613, 1033, 1034, 1055, 1054
545, 593, 594, 615, 614, 1034, 1035, 1056, 1055
546, 594, 595, 616, 615, 1035, 1036, 1057, 1056
547, 595, 596, 617, 616, 1036, 1037, 1058, 1057
548, 596, 597, 618, 617, 1037, 1038, 1059, 1058
549, 597, 598, 619, 618, 1038, 1039, 1060, 1059
550, 598, 599, 620, 619, 1039, 1040, 1061, 1060
551, 599, 600, 621, 620, 1040, 1041, 1062, 1061
552, 600, 601, 622, 621, 1041, 1042, 1063, 1062
553, 601, 602, 623, 622, 1042, 1043, 1064, 1063
554, 602, 603, 624, 623, 1043, 1044, 1065, 1064
555, 603, 604, 625, 624, 1044, 1045, 1066, 1065
556, 604, 605, 626, 625, 1045, 1046, 1067, 1066
557, 605, 606, 627, 626, 1046, 1047, 1068, 1067
558, 606, 607, 628, 627, 1047, 1048, 1069, 1068
559, 607, 608, 629, 628, 1048, 1049, 1070, 1069
560, 608, 609, 630, 629, 1049, 1050, 1071, 1070
561, 610, 611, 632, 631, 1051, 1052, 1073, 1072
562, 611, 612, 633, 632, 1052, 1053, 1074, 1073
563, 612, 613, 634, 633, 1053, 1054, 1075, 1074
564, 613, 614, 635, 634, 1054, 1055, 1076, 1075
565, 614, 615, 636, 635, 1055, 1056, 1077, 1076
566, 615, 616, 637, 636, 1056, 1057, 1078, 1077
567, 616, 617, 638, 637, 1057, 1058, 1079, 1078
568, 617, 618, 639, 638, 1058, 1059, 1080, 1079
569, 618, 619, 640, 639, 1059, 1060, 1081, 1080
570, 619, 620, 641, 640, 1060, 1061, 1082, 1081
571, 620, 621, 642, 641, 1061, 1062, 1083, 1082
572, 621, 622, 643, 642, 1062, 1063, 1084, 1083
573, 622, 623, 644, 643, 1063, 1064, 1085, 1084
574, 623, 624, 645, 644, 1064, 1065, 1086, 1085
575, 624, 625, 646, 645, 1065, 1066, 1087, 1086
576, 625, 626, 647, 646, 1066, 1067, 1088, 1087
577, 626, 627, 648, 647, 1067, 1068, 1089, 1088
578, 627, 628, 649, 648, 1068, 1069, 1090, 1089
579, 628, 629, 650, 649, 1069, 1070, 1091, 1090
580, 629, 630, 651, 650, 1070, 1071, 1092, 1091
581, 631, 632, 653, 652, 1072, 1073, 1094, 1093
582, 632, 633, 654, 653, 1073, 1074, 1095, 1094
583, 633, 634, 655, 654, 1074, 1075, 1096, 1095
584, 634, 635, 656, 655, 1075, 1076, 1097, 1096
585, 635, 636, 657, 656, 1076, 1077, 1098, 1097
586, 636, 637, 658, 657, 1077, 1078, 1099, 1098
587, 637, 638, 659, 658, 1078, 1079, 1100, 1099
588, 638, 639, 660, 659, 1079, 1080, 1101, 1100
589, 639, 640, 661, 660, 1080, 1081, 1102, 1101
590, 640, 641, 662, 661, 1081, 1082, 1103, 1102
591, 641, 642, 663, 662, 1082, 1083, 1104, 1103
592, 642, 643, 664, 663, 1083, 1084, 1105, 1104
593, 643, 644, 665, 664, 1084, 1085, 1106, 1105
594, 644, 645, 666, 665, 1085, 1086, 1107, 1106
595, 645, 646, 667, 666, 1086, 1087, 1108, 1107
596, 646, 647, 668, 667, 1087, 1088, 1109, 1108
597, 647, 648, 669, 668, 1088, 1089, 1110, 1109
598, 648, 649, 670, 669, 1089, 1090, 1111, 1110
599, 649, 650, 671, 670, 1090, 1091, 1112, 1111
600, 650, 651, 672, 671, 1091, 1092, 1113, 1112
601, 652, 653, 674, 673, 1093, 1094, 1115, 1114
602, 653, 654, 675, 674, 1094, 1095, 1116, 1115
603, 654, 655, 676, 675, 1095, 1096, 1117, 1116
604, 655, 656, 677, 676, 1096, 1097, 1118, 1117
605, 656, 657, 678, 677, 1097, 1098, 1119, 1118
606, 657, 658, 679, 678, 1098, 1099, 1120, 1119
607, 658, 659, 680, 679, 1099, 1100, 1121, 1120
608, 659, 660, 681, 680, 1100, 1101, 1122, 1121
609, 660, 661, 682, 681, 1101, 1102, 1123, 1122
610, 661, 662, 683, 682, 1102, 1103, 1124, 1123
611, 662, 663, 684, 683, 1103, 1104, 1125, 1124
612, 663, 664, 685, 684, 1104, 1105, 1126, 1125
613, 664, 665, 686, 685, 1105, 1106, 1127, 1126
614, 665, 666, 687, 686, 1106, 1107, 1128, 1127
615, 666, 667, 688, 687, 1107, 1108, 1129, 1128
616, 667, 668, 689, 688, 1108, 1109, 1130, 1129
617, 668, 669, 690, 689, 1109, 1110, 1131, 1130
618, 669, 670, 691, 690, 1110, 1111, 1132, 1131
619, 670, 671, 692, 691, 1111, 1112, 1133, 1132
620, 671, 672, 693, 692, 1112, 1113, 1134, 1133
621, 673, 674, 695, 694, 1114, 1115, 1136, 1135
622, 674, 675, 696, 695, 1115, 1116, 1137, 1136
623, 675, 676, 697, 696, 1116, 1117, 1138, 1137
624, 676, 677, 698, 697, 1117, 1118, 1139, 1138
625, 677, 678, 699, 698, 1118, 1119, 1140, 1139
626, 678, 679, 700, 699, 1119, 1120, 1141, 1140
627, 679, 680, 701, 700, 1120, 1121, 1142, 1141
628, 680, 681, 702, 701, 1121, 1122, 1143, 1142
629, 681, 682, 703, 702, 1122, 1123, 1144, 1143
630, 682, 683, 704, 703, 1123, 1124, 1145, 1144
631, 683, 684, 705, 704, 1124, 1125, 1146, 1145
632, 684, 685, 706, 705, 1125, 1126, 1147, 1146
633, 685, 686, 707, 706, 1126, 1127, 1148, 1147
634, 686, 687, 708, 707, 1127, 1128, 1149, 1148
635, 687, 688, 709, 708, 1128, 1129, 1150, 1149
636, 688, 689, 710, 709, 1129, 1130, 1151, 1150
637, 689, 690, 711, 710, 1130, 1131, 1152, 1151
638, 690, 691, 712, 711, 1131, 1132, 1153, 1152
639, 691, 692, 713, 712, 1132, 1133, 1154, 1153
640, 692, 693, 714, 713, 1133, 1134, 1155, 1154
641, 694, 695, 716, 715, 1135, 1136, 1157, 1156
642, 695, 696, 717, 716, 1136, 1137, 1158, 1157
643, 696, 697, 718, 717, 1137, 1138, 1159, 1158
644, 697, 698, 719, 718, 1138, 1139, 1160, 1159
645, 698, 699, 720, 719, 1139, 1140, 1161, 1160
646, 699, 700, 721, 720, 1140, 1141, 1162, 1161
647, 700, 701, 722, 721, 1141, 1142, 1163, 1162
648, 701, 702, 723, 722, 1142, 1143, 1164, 1163
649, 702, 703, 724, 723, 1143, 1144, 1165, 1164
650, 703, 704, 725, 724, 1144, 1145, 1166, 1165
651, 704, 705, 726, 725, 1145, 1146, 1167, 1166
652, 705, 706, 727, 726, 1146, 1147, 1168, 1167
653, 706, 707, 728, 727, 1147, 1148, 1169, 1168
654, 707, 708, 729, 728, 1148, 1149, 1170, 1169
655, 708, 709, 730, 729, 1149, 1150, 1171, 1170
656, 709, 710, 731, 730, 1150, 1151, 1172, 1171
657, 710, 711, 732, 731, 1151, 1152, 1173, 1172
658, 711, 712, 733, 732, 1152, 1153, 1174, 1173
659, 712, 713, 734, 733, 1153, 1154, 1175, 1174
660, 713, 714, 735, 734, 1154, 1155, 1176, 1175
661, 715, 716, 737, 736, 1156, 1157, 1178, 1177
662, 716, 717, 738, 737, 1157, 1158, 1179, 1178
663, 717, 718, 739, 738, 1158, 1159, 1180, 1179
664, 718, 719, 740, 739, 1159, 1160, 1181, 1180
665, 719, 720, 741, 740, 1160, 1161, 1182, 1181
666, 720, 721, 742, 741, 1161, 1162, 1183, 1182
667, 721, 722, 743, 742, 1162, 1163, 1184, 1183
668, 722, 723, 744, 743, 1163, 1164, 1185, 1184
669, 723, 724, 745, 744, 1164, 1165, 1186, 1185
670, 724, 725, 746, 745, 1165, 1166, 1187, 1186
671, 725, 726, 747, 746, 1166, 1167, 1188, 1187
672, 726, 727, 748, 747, 1167, 1168, 1189, 1188
673, 727, 728, 749, 748, 1168, 1169, 1190, 1189
674, 728, 729, 750, 749, 1169, 1170, 1191, 1190
675, 729, 730, 751, 750, 1170, 1171, 1192, 1191
676, 730, 731, 752, 751, 1171, 1172, 1193, 1192
677, 731, 732, 753, 752, 1172, 1173, 1194, 1193
678, 732, 733, 754, 753, 1173, 1174, 1195, 1194
679, 733, 734, 755, 754, 1174, 1175, 1196, 1195
680, 734, 735, 756, 755, 1175, 1176, 1197, 1196
681, 736, 737, 758, 757, 1177, 1178, 1199, 1198
682, 737, 738, 759, 758, 1178, 1179, 1200, 1199
683, 738, 739, 760, 759, 1179, 1180, 1201, 1200
684, 739, 740, 761, 760, 1180, 1181, 1202, 1201
685, 740, 741, 762, 761, 1181, 1182, 1203, 1202
686, 741, 742, 763, 762, 1182, 1183, 1204, 1203
687, 742, 743, 764, 763, 1183, 1184, 1205, 1204
688, 743, 744, 765, 764, 1184, 1185, 1206, 1205
689, 744, 745, 766, 765, 1185, 1186, 1207, 1206
690, 745, 746, 767, 766, 1186, 1187, 1208, 1207
691, 746, 747, 768, 767, 1187, 1188, 1209, 1208
692, 747, 748, 769, 768, 1188, 1189, 1210, 1209
693, 748, 749, 770, 769, 1189, 1190, 1211, 1210
694, 749, 750, 771, 770, 1190, 1191, 1212, 1211
695, 750, 751, 772, 771, 1191, 1192, 1213, 1212
696, 751, 752, 773, 772, 1192, 1193, 1214, 1213
697, 752, 753, 774, 773, 1193, 1194, 1215, 1214
698, 753, 754, 775, 774, 1194, 1195, 1216, 1215
699, 754, 755, 776, 775, 1195, 1196, 1217, 1216
700, 755, 756, 777, 776, 1196, 1197, 1218, 1217
701, 757, 758, 779, 778, 1198, 1199, 1220, 1219
702, 758, 759, 780, 779, 1199, 1200, 1221, 1220
703, 759, 760, 781, 780, 1200, 1201, 1222, 1221
704, 760, 761, 782, 781, 1201, 1202, 1223, 1222
705, 761, 762, 783, 782, 1202, 1203, 1224, 1223
706, 762, 763, 784, 783, 1203, 1204, 1225, 1224
707, 763, 764, 785, 784, 1204, 1205, 1226, 1225
708, 764, 765, 786, 785, 1205, 1206, 1227, 1226
709, 765, 766, 787, 786, 1206, 1207, 1228, 1227
710, 766, 767, 788, 787, 1207, 1208, 1229, 1228
711, 767, 768, 789, 788, 1208, 1209, 1230, 1229
712, 768, 769, 790, 789, 1209, 1210, 1231, 1230
713, 769, 770, 791, 790, 1210, 1211, 1232, 1231
714, 770, 771, 792, 791, 1211, 1212, 1233, 1232
715, 771, 772, 793, 792, 1212, 1213, 1234, 1233
716, 772, 773, 794, 793, 1213, 1214, 1235, 1234
717, 773, 774, 795, 794, 1214, 1215, 1236, 1235
718, 774, 775, 796, 795, 1215, 1216, 1237, 1236
719, 775, 776, 797, 796, 1216, 1217, 1238, 1237
720, 776, 777, 798, 797, 1217, 1218, 1239, 1238
721, 778, 779, 800, 799, 1219, 1220, 1241, 1240
722, 779, 780, 801, 800, 1220, 1221, 1242, 1241
723, 780, 781, 802, 801, 1221, 1222, 1243, 1242
724, 781, 782, 803, 802, 1222, 1223, 1244, 1243
725, 782, 783, 804, 803, 1223, 1224, 1245, 1244
726, 783, 784, 805, 804, 1224, 1225, 1246, 1245
727, 784, 785, 806, 805, 1225, 1226, 1247, 1246
728, 785, 786, 807, 806, 1226, 1227, 1248, 1247
729, 786, 787, 808, 807, 1227, 1228, 1249, 1248
730, 787, 788, 809, 808, 1228, 1229, 1250, 1249
731, 788, 789, 810, 809, 1229, 1230, 1251, 1250
732, 789, 790, 811, 810, 1230, 1231, 1252, 1251
733, 790, 791, 812, 811, 1231, 1232, 1253, 1252
734, 791, 792, 813, 812, 1232, 1233, 1254, 1253
735, 792, 793, 814, 813, 1233, 1234, 1255, 1254
736, 793, 794, 815, 814, 1234, 1235, 1256, 1255
737, 794, 795, 816, 815, 1235, 1236, 1257, 1256
738, 795, 796, 817, 816, 1236, 1237, 1258, 1257
739, 796, 797, 818, 817, 1237, 1238, 1259, 1258
740, 797, 798, 819, 818, 1238, 1239, 1260, 1259
741, 799, 800, 821, 820, 1240, 1241, 1262, 1261
742, 800, 801, 822, 821, 1241, 1242, 1263, 1262
743, 801, 802, 823, 822, 1242, 1243, 1264, 1263
744, 802, 803, 824, 823, 1243, 1244, 1265, 1264
745, 803, 804, 825, 824, 1244, 1245, 1266, 1265
746, 804, 805, 826, 825, 1245, 1246, 1267, 1266
747, 805, 806, 827, 826, 1246, 1247, 1268, 1267
748, 806, 807, 828, 827, 1247, 1248, 1269, 1268
749, 807, 808, 829, 828, 1248, 1249, 1270, 1269
750, 808, 809, 830, 829, 1249, 1250, 1271, 1270
751, 809, 810, 831, 830, 1250, 1251, 1272, 1271
752, 810, 811, 832, 831, 1251, 1252, 1273, 1272
753, 811, 812, 833, 832, 1252, 1253, 1274, 1273
754, 812, 813, 834, 833, 1253, 1254, 1275, 1274
755, 813, 814, 835, 834, 1254, 1255, 1276, 1275
756, 814, 815, 836, 835, 1255, 1256, 1277, 1276
757, 815, 816, 837, 836, 1256, 1257, 1278, 1277
758, 816, 817, 838, 837, 1257, 1258, 1279, 1278
759, 817, 818, 839, 838, 1258, 1259, 1280, 1279
760, 818, 819, 840, 839, 1259, 1260, 1281, 1280
761, 820, 821, 842, 841, 1261, 1262, 1283, 1282
762, 821, 822, 843, 842, 1262, 1263, 1284, 1283
763, 822, 823, 844, 843, 1263, 1264, 1285, 1284
764, 823, 824, 845, 844, 1264, 1265, 1286, 1285
765, 824, 825, 846, 845, 1265, 1266, 1287, 1286
766, 825, 826, 847, 846, 1266, 1267, 1288, 1287
767, 826, 827, 848, 847, 1267, 1268, 1289, 1288
768, 827, 828, 849, 848, 1268, 1269, 1290, 1289
769, 828, 829, 850, 849, 1269, 1270, 1291, 1290
770, 829, 830, 851, 850, 1270, 1271, 1292, 1291
771, 830, 831, 852, 851, 1271, 1272, 1293, 1292
772, 831, 832, 853, 852, 1272, 1273, 1294, 1293
773, 832, 833, 854, 853, 1273, 1274, 1295, 1294
774, 833, 834, 855, 854, 1274, 1275, 1296, 1295
775, 834, 835, 856, 855, 1275, 1276, 1297, 1296
776, 835, 836, 857, 856, 1276, 1277, 1298, 1297
777, 836, 837, 858, 857, 1277, 1278, 1299, 1298
778, 837, 838, 859, 858, 1278, 1279, 1300, 1299
779, 838, 839, 860, 859, 1279, 1280, 1301, 1300
780, 839, 840, 861, 860, 1280, 1281, 1302, 1301
781, 841, 842, 863, 862, 1282, 1283, 1304, 1303
782, 842, 843, 864, 863, 1283, 1284, 1305, 1304
783, 843, 844, 865, 864, 1284, 1285, 1306, 1305
784, 844, 845, 866, 865, 1285, 1286, 1307, 1306
785, 845, 846, 867, 866, 1286, 1287, 1308, 1307
786, 846, 847, 868, 867, 1287, 1288, 1309, 1308
787, 847, 848, 869, 868, 1288, 1289, 1310, 1309
788, 848, 849, 870, 869, 1289, 1290, 1311, 1310
789, 849, 850, 871, 870, 1290, 1291, 1312, 1311
790, 850, 851, 872, 871, 1291, 1292, 1313, 1312
791, 851, 852, 873, 872, 1292, 1293, 1314, 1313
792, 852, 853, 874, 873, 1293, 1294, 1315, 1314
793, 853, 854, 875, 874, 1294, 1295, 1316, 1315
794, 854, 855, 876, 875, 1295, 1296, 1317, 1316
795, 855, 856, 877, 876, 1296, 1297, 1318, 1317
796, 856, 857, 878, 877, 1297, 1298, 1319, 1318
797, 857, 858, 879, 878, 1298, 1299, 1320, 1319
798, 858, 859, 880, 879, 1299, 1300, 1321, 1320
799, 859, 860, 881, 880, 1300, 1301, 1322, 1321
800, 860, 861, 882, 881, 1301, 1302, 1323, 1322
*ELEMENT, TYPE=C3D8, ELSET=TOOL
801, 1324, 1326, 1392, 1390, 1325, 1327, 1393, 1391
802, 1326, 1328, 1394, 1392, 1327, 1329, 1395, 1393
803, 1328, 1330, 1396, 1394, 1329, 1331, 1397, 1395
804, 1330, 1332, 1398, 1396, 1331, 1333, 1399, 1397
805, 1332, 1334, 1400, 1398, 1333, 1335, 1401, 1399
806, 1334, 1336, 1402, 1400, 1335, 1337, 1403, 1401
807, 1336, 1338, 1404, 1402, 1337, 1339, 1405, 1403
808, 1338, 1340, 1406, 1404, 1339, 1341, 1407, 1405
809, 1340, 1342, 1408, 1406, 1341, 1343, 1409, 1407
810, 1342, 1344, 1410, 1408, 1343, 1345, 1411, 1409
811, 1344, 1346, 1412, 1410, 1345, 1347, 1413, 1411
812, 1346, 1348, 1414, 1412, 1347, 1349, 1415, 1413
813, 1348, 1350, 1416, 1414, 1349, 1351, 1417, 1415
814, 1350, 1352, 1418, 1416, 1351, 1353, 1419, 1417
815, 1352, 1354, 1420, 1418, 1353, 1355, 1421, 1419
816, 1354, 1356, 1422, 1420, 1355, 1357, 1423, 1421
817, 1356, 1358, 1424, 1422, 1357, 1359, 1425, 1423
818, 1358, 1360, 1426, 1424, 1359, 1361, 1427, 1425
819, 1360, 1362, 1428, 1426, 1361, 1363, 1429, 1427
820, 1362, 1364, 1430, 1428, 1363, 1365, 1431, 1429
821, 1364, 1366, 1432, 1430, 1365, 1367, 1433, 1431
822, 1366, 1368, 1434, 1432, 1367, 1369, 1435, 1433
823, 1368, 1370, 1436, 1434, 1369, 1371, 1437, 1435
824, 1370, 1372, 1438, 1436, 1371, 1373, 1439, 1437
825, 1372, 1374, 1440, 1438, 1373, 1375, 1441, 1439
826, 1374, 1376, 1442, 1440, 1375, 1377, 1443, 1441
827, 1376, 1378, 1444, 1442, 1377, 1379, 1445, 1443
828, 1378, 1380, 1446, 1444, 1379, 1381, 1447, 1445
829, 1380, 1382, 1448, 1446, 1381, 1383, 1449, 1447
830, 1382, 1384, 1450, 1448, 1383, 1385, 1451, 1449
831, 1384, 1386, 1452, 1450, 1385, 1387, 1453, 1451
832, 1386, 1388, 1454, 1452, 1387, 1389, 1455, 1453
833, 1390, 1392, 1458, 1456, 1391, 1393, 1459, 1457
834, 1392, 1394, 1460, 1458, 1393, 1395, 1461, 1459
835, 1394, 1396, 1462, 1460, 1395, 1397, 1463, 1461
836, 1396, 1398, 1464, 1462, 1397, 1399, 1465, 1463
837, 1398, 1400, 1466, 1464, 1399, 1401, 1467, 1465
838, 1400, 1402, 1468, 1466, 1401, 1403, 1469, 1467
839, 1402, 1404, 1470, 1468, 1403, 1405, 1471, 1469
840, 1404, 1406, 1472, 1470, 1405, 1407, 1473, 1471
841, 1406, 1408, 1474, 1472, 1407, 1409, 1475, 1473
842, 1408, 1410, 1476, 1474, 1409, 1411, 1477, 1475
843, 1410, 1412, 1478, 1476, 1411, 1413, 1479, 1477
844, 1412, 1414, 1480, 1478, 1413, 1415, 1481, 1479
845, 1414, 1416, 1482, 1480, 1415, 1417, 1483, 1481
846, 1416, 1418, 1484, 1482, 1417, 1419, 1485, 1483
847, 1418, 1420, 1486, 1484, 1419, 1421, 1487, 1485
848, 1420, 1422, 1488, 1486, 1421, 1423, 1489, 1487
849, 1422, 1424, 1490, 1488, 1423, 1425, 1491, 1489
850, 1424, 1426, 1492, 1490, 1425, 1427, 1493, 1491
851, 1426, 1428, 1494, 1492, 1427, 1429, 1495, 1493
852, 1428, 1430, 1496, 1494, 1429, 1431, 1497, 1495
853, 1430, 1432, 1498, 1496, 1431, 1433, 1499, 1497
854, 1432, 1434, 1500, 1498, 1433, 1435, 1501, 1499
855, 1434, 1436, 1502, 1500, 1435, 1437, 1503, 1501
856, 1436, 1438, 1504, 1502, 1437, 1439, 1505, 1503
857, 1438, 1440, 1506, 1504, 1439, 1441, 1507, 1505
858, 1440, 1442, 1508, 1506, 1441, 1443, 1509, 1507
859, 1442, 1444, 1510, 1508, 1443, 1445, 1511, 1509
860, 1444, 1446, 1512, 1510, 1445, 1447, 1513, 1511
861, 1446, 1448, 1514, 1512, 1447, 1449, 1515, 1513
862, 1448, 1450, 1516, 1514, 1449, 1451, 1517, 1515
863, 1450, 1452, 1518, 1516, 1451, 1453, 1519, 1517
864, 1452, 1454, 1520, 1518, 1453, 1455, 1521, 1519
865, 1456, 1458, 1524, 1522, 1457, 1459, 1525, 1523
866, 1458, 1460, 1526, 1524, 1459, 1461, 1527, 1525
867, 1460, 1462, 1528, 1526, 1461, 1463, 1529, 1527
868, 1462, 1464, 1530, 1528, 1463, 1465, 1531, 1529
869, 1464, 1466, 1532, 1530, 1465, 1467, 1533, 1531
870, 1466, 1468, 1534, 1532, 1467, 1469, 1535, 1533
871, 1468, 1470, 1536, 1534, 1469, 1471, 1537, 1535
872, 1470, 1472, 1538, 1536, 1471, 1473, 1539, 1537
873, 1472, 1474, 1540, 1538, 1473, 1475, 1541, 1539
874, 1474, 1476, 1542, 1540, 1475, 1477, 1543, 1541
875, 1476, 1478, 1544, 1542, 1477, 1479, 1545, 1543
876, 1478, 1480, 1546, 1544, 1479, 1481, 1547, 1545
877, 1480, 1482, 1548, 1546, 1481, 1483, 1549, 1547
878, 1482, 1484, 1550, 1548, 1483, 1485, 1551, 1549
879, 1484, 1486, 1552, 1550, 1485, 1487, 1553, 1551
880, 1486, 1488, 1554, 1552, 1487, 1489, 1555, 1553
881, 1488, 1490, 1556, 1554, 1489, 1491, 1557, 1555
882, 1490, 1492, 1558, 1556, 1491, 1493, 1559, 1557
883, 1492, 1494, 1560, 1558, 1493, 1495, 1561, 1559
884, 1494, 1496, 1562, 1560, 1495, 1497, 1563, 1561
885, 1496, 1498, 1564, 1562, 1497, 1499, 1565, 1563
886, 1498, 1500, 1566, 1564, 1499, 1501, 1567, 1565
887, 1500, 1502, 1568, 1566, 1501, 1503, 1569, 1567
888, 1502, 1504, 1570, 1568, 1503, 1505, 1571, 1569
889, 1504, 1506, 1572, 1570, 1505, 1507, 1573, 1571
890, 1506, 1508, 1574, 1572, 1507, 1509, 1575, 1573
891, 1508, 1510, 1576, 1574, 1509, 1511, 1577, 1575
892, 1510, 1512, 1578, 1576, 1511, 1513, 1579, 1577
893, 1512, 1514, 1580, 1578, 1513, 1515, 1581, 1579
894, 1514, 1516, 1582, 1580, 1515, 1517, 1583, 1581
895, 1516, 1518, 1584, 1582, 1517, 1519, 1585, 1583
896, 1518, 1520, 1586, 1584, 1519, 1521, 1587, 1585
897, 1522, 1524, 1590, 1588, 1523, 1525, 1591, 1589
898, 1524, 1526, 1592, 1590, 1525, 1527, 1593, 1591
899, 1526, 1528, 1594, 1592, 1527, 1529, 1595, 1593
900, 1528, 1530, 1596, 1594, 1529, 1531, 1597, 1595
901, 1530, 1532, 1598, 1596, 1531, 1533, 1599, 1597
902, 1532, 1534, 1600, 1598, 1533, 1535, 1601, 1599
903, 1534, 1536, 1602, 1600, 1535, 1537, 1603, 1601
904, 1536, 1538, 1604, 1602, 1537, 1539, 1605, 1603
905, 1538, 1540, 1606, 1604, 1539, 1541, 1607, 1605
906, 1540, 1542, 1608, 1606, 1541, 1543, 1609, 1607
907, 1542, 1544, 1610, 1608, 1543, 1545, 1611, 1609
908, 1544, 1546, 1612, 1610, 1545, 1547, 1613, 1611
909, 1546, 1548, 1614, 1612, 1547, 1549, 1615, 1613
910, 1548, 1550, 1616, 1614, 1549, 1551, 1617, 1615
911, 1550, 1552, 1618, 1616, 1551, 1553, 1619, 1617
912, 1552, 1554, 1620, 1618, 1553, 1555, 1621, 1619
913, 1554, 1556, 1622, 1620, 1555, 1557, 1623, 1621
914, 1556, 1558, 1624, 1622, 1557, 1559, 1625, 1623
915, 1558, 1560, 1626, 1624, 1559, 1561, 1627, 1625
916, 1560, 1562, 1628, 1626, 1561, 1563, 1629, 1627
917, 1562, 1564, 1630, 1628, 1563, 1565, 1631, 1629
918, 1564, 1566, 1632, 1630, 1565, 1567, 1633, 1631
919, 1566, 1568, 1634, 1632, 1567, 1569, 1635, 1633
920, 1568, 1570, 1636, 1634, 1569, 1571, 1637, 1635
921, 1570, 1572, 1638, 1636, 1571, 1573, 1639, 1637
922, 1572, 1574, 1640, 1638, 1573, 1575, 1641, 1639
923, 1574, 1576, 1642, 1640, 1575, 1577, 1643, 1641
924, 1576, 1578, 1644, 1642, 1577, 1579, 1645, 1643
925, 1578, 1580, 1646, 1644, 1579, 1581, 1647, 1645
926, 1580, 1582, 1648, 1646, 1581, 1583, 1649, 1647
927, 1582, 1584, 1650, 1648, 1583, 1585, 1651, 1649
928, 1584, 1586, 1652, 1650, 1585, 1587, 1653, 1651
929, 1588, 1590, 1656, 1654, 1589, 1591, 1657, 1655
930, 1590, 1592, 1658, 1656, 1591, 1593, 1659, 1657
931, 1592, 1594, 1660, 1658, 1593, 1595, 1661, 1659
932, 1594, 1596, 1662, 1660, 1595, 1597, 1663, 1661
933, 1596, 1598, 1664, 1662, 1597, 1599, 1665, 1663
934, 1598, 1600, 1666, 1664, 1599, 1601, 1667, 1665
935, 1600, 1602, 1668, 1666, 1601, 1603, 1669, 1667
936, 1602, 1604, 1670, 1668, 1603, 1605, 1671, 1669
937, 1604, 1606, 1672, 1670, 1605, 1607, 1673, 1671
938, 1606, 1608, 1674, 1672, 1607, 1609, 1675, 1673
939, 1608, 1610, 1676, 1674, 1609, 1611, 1677, 1675
940, 1610, 1612, 1678, 1676, 1611, 1613, 1679, 1677
941, 1612, 1614, 1680, 1678, 1613, 1615, 1681, 1679
942, 1614, 1616, 1682, 1680, 1615, 1617, 1683, 1681
943, 1616, 1618, 1684, 1682, 1617, 1619, 1685, 1683
944, 1618, 1620, 1686, 1684, 1619, 1621, 1687, 1685
945, 1620, 1622, 1688, 1686, 1621, 1623, 1689, 1687
946, 1622, 1624, 1690, 1688, 1623, 1625, 1691, 1689
947, 1624, 1626, 1692, 1690, 1625, 1627, 1693, 1691
948, 1626, 1628, 1694, 1692, 1627, 1629, 1695, 1693
949, 1628, 1630, 1696, 1694, 1629, 1631, 1697, 1695
950, 1630, 1632, 1698, 1696, 1631, 1633, 1699, 1697
951, 1632, 1634, 1700, 1698, 1633, 1635, 1701, 1699
952, 1634, 1636, 1702, 1700, 1635, 1637, 1703, 1701
953, 1636, 1638, 1704, 1702, 1637, 1639, 1705, 1703
954, 1638, 1640, 1706, 1704, 1639, 1641, 1707, 1705
955, 1640, 1642, 1708, 1706, 1641, 1643, 1709, 1707
956, 1642, 1644, 1710, 1708, 1643, 1645, 1711, 1709
957, 1644, 1646, 1712, 1710, 1645, 1647, 1713, 1711
958, 1646, 1648, 1714, 1712, 1647, 1649, 1715, 1713
959, 1648, 1650, 1716, 1714, 1649, 1651, 1717, 1715
960, 1650, 1652, 1718, 1716, 1651, 1653, 1719, 1717
961, 1654, 1656, 1722, 1720, 1655, 1657, 1723, 1721
962, 1656, 1658, 1724, 1722, 1657, 1659, 1725, 1723
963, 1658, 1660, 1726, 1724, 1659, 1661, 1727, 1725
964, 1660, 1662, 1728, 1726, 1661, 1663, 1729, 1727
965, 1662, 1664, 1730, 1728, 1663, 1665, 1731, 1729
966, 1664, 1666, 1732, 1730, 1665, 1667, 1733, 1731
967, 1666, 1668, 1734, 1732, 1667, 1669, 1735, 1733
968, 1668, 1670, 1736, 1734, 1669, 1671, 1737, 1735
969, 1670, 1672, 1738, 1736, 1671, 1673, 1739, 1737
970, 1672, 1674, 1740, 1738, 1673, 1675, 1741, 1739
971, 1674, 1676, 1742, 1740, 1675, 1677, 1743, 1741
972, 1676, 1678, 1744, 1742, 1677, 1679, 1745, 1743
973, 1678, 1680, 1746, 1744, 1679, 1681, 1747, 1745
974, 1680, 1682, 1748, 1746, 1681, 1683, 1749, 1747
975, 1682, 1684, 1750, 1748, 1683, 1685, 1751, 1749
976, 1684, 1686, 1752, 1750, 1685, 1687, 1753, 1751
977, 1686, 1688, 1754, 1752, 1687, 1689, 1755, 1753
978, 1688, 1690, 1756, 1754, 1689, 1691, 1757, 1755
979, 1690, 1692, 1758, 1756, 1691, 1693, 1759, 1757
980, 1692, 1694, 1760, 1758, 1693, 1695, 1761, 1759
981, 1694, 1696, 1762, 1760, 1695, 1697, 1763, 1761
982, 1696, 1698, 1764, 1762, 1697, 1699, 1765, 1763
983, 1698, 1700, 1766, 1764, 1699, 1701, 1767, 1765
984, 1700, 1702, 1768, 1766, 1701, 1703, 1769, 1767
985, 1702, 1704, 1770, 1768, 1703, 1705, 1771, 1769
986, 1704, 1706, 1772, 1770, 1705, 1707, 1773, 1771
987, 1706, 1708, 1774, 1772, 1707, 1709, 1775, 1773
988, 1708, 1710, 1776, 1774, 1709, 1711, 1777, 1775
989, 1710, 1712, 1778, 1776, 1711, 1713, 1779, 1777
990, 1712, 1714, 1780, 1778, 1713, 1715, 1781, 1779
991, 1714, 1716, 1782, 1780, 1715, 1717, 1783, 1781
992, 1716, 1718, 1784, 1782, 1717, 1719, 1785, 1783
993, 1720, 1722, 1788, 1786, 1721, 1723, 1789, 1787
994, 1722, 1724, 1790, 1788, 1723, 1725, 1791, 1789
995, 1724, 1726, 1792, 1790, 1725, 1727, 1793, 1791
996, 1726, 1728, 1794, 1792, 1727, 1729, 1795, 1793
997, 1728, 1730, 1796, 1794, 1729, 1731, 1797, 1795
998, 1730, 1732, 1798, 1796, 1731, 1733, 1799, 1797
999, 1732, 1734, 1800, 1798, 1733, 1735, 1801, 1799
1000, 1734, 1736, 1802, 1800, 1735, 1737, 1803, 1801
1001, 1736, 1738, 1804, 1802, 1737, 1739, 1805, 1803
1002, 1738, 1740, 1806, 1804, 1739, 1741, 1807, 1805
1003, 1740, 1742, 1808, 1806, 1741, 1743, 1809, 1807
1004, 1742, 1744, 1810, 1808, 1743, 1745, 1811, 1809
1005, 1744, 1746, 1812, 1810, 1745, 1747, 1813, 1811
1006, 1746, 1748, 1814, 1812, 1747, 1749, 1815, 1813
1007, 1748, 1750, 1816, 1814, 1749, 1751, 1817, 1815
1008, 1750, 1752, 1818, 1816, 1751, 1753, 1819, 1817
1009, 1752, 1754, 1820, 1818, 1753, 1755, 1821, 1819
1010, 1754, 1756, 1822, 1820, 1755, 1757, 1823, 1821
1011, 1756, 1758, 1824, 1822, 1757, 1759, 1825, 1823
1012, 1758, 1760, 1826, 1824, 1759, 1761, 1827, 1825
1013, 1760, 1762, 1828, 1826, 1761, 1763, 1829, 1827
1014, 1762, 1764, 1830, 1828, 1763, 1765, 1831, 1829
1015, 1764, 1766, 1832, 1830, 1765, 1767, 1833, 1831
1016, 1766, 1768, 1834, 1832, 1767, 1769, 1835, 1833
1017, 1768, 1770, 1836, 1834, 1769, 1771, 1837, 1835
1018, 1770, 1772, 1838, 1836, 1771, 1773, 1839, 1837
1019, 1772, 1774, 1840, 1838, 1773, 1775, 1841, 1839
1020, 1774, 1776, 1842, 1840, 1775, 1777, 1843, 1841
1021, 1776, 1778, 1844, 1842, 1777, 1779, 1845, 1843
1022, 1778, 1780, 1846, 1844, 1779, 1781, 1847, 1845
1023, 1780, 1782, 1848, 1846, 1781, 1783, 1849, 1847
1024, 1782, 1784, 1850, 1848, 1783, 1785, 1851, 1849
1025, 1786, 1788, 1854, 1852, 1787, 1789, 1855, 1853
1026, 1788, 1790, 1856, 1854, 1789, 1791, 1857, 1855
1027, 1790, 1792, 1858, 1856, 1791, 1793, 1859, 1857
1028, 1792, 1794, 1860, 1858, 1793, 1795, 1861, 1859
1029, 1794, 1796, 1862, 1860, 1795, 1797, 1863, 1861
1030, 1796, 1798, 1864, 1862, 1797, 1799, 1865, 1863
1031, 1798, 1800, 1866, 1864, 1799, 1801, 1867, 1865
1032, 1800, 1802, 1868, 1866, 1801, 1803, 1869, 1867
1033, 1802, 1804, 1870, 1868, 1803, 1805, 1871, 1869
1034, 1804, 1806, 1872, 1870, 1805, 1807, 1873, 1871
1035, 1806, 1808, 1874, 1872, 1807, 1809, 1875, 1873
1036, 1808, 1810, 1876, 1874, 1809, 1811, 1877, 1875
1037, 1810, 1812, 1878, 1876, 1811, 1813, 1879, 1877
1038, 1812, 1814, 1880, 1878, 1813, 1815, 1881, 1879
1039, 1814, 1816, 1882, 1880, 1815, 1817, 1883, 1881
1040, 1816, 1818, 1884, 1882, 1817, 1819, 1885, 1883
1041, 1818, 1820, 1886, 1884, 1819, 1821, 1887, 1885
1042, 1820, 1822, 1888, 1886, 1821, 1823, 1889, 1887
1043, 1822, 1824, 1890, 1888, 1823, 1825, 1891, 1889
1044, 1824, 1826, 1892, 1890, 1825, 1827, 1893, 1891
1045, 1826, 1828, 1894, 1892, 1827, 1829, 1895, 1893
1046, 1828, 1830, 1896, 1894, 1829, 1831, 1897, 1895
1047, 1830, 1832, 1898, 1896, 1831, 1833, 1899, 1897
1048, 1832, 1834, 1900, 1898, 1833, 1835, 1901, 1899
1049, 1834, 1836, 1902, 1900, 1835, 1837, 1903, 1901
1050, 1836, 1838, 1904, 1902, 1837, 1839, 1905, 1903
1051, 1838, 1840, 1906, 1904, 1839, 1841, 1907, 1905
1052, 1840, 1842, 1908, 1906, 1841, 1843, 1909, 1907
1053, 1842, 1844, 1910, 1908, 1843, 1845, 1911, 1909
1054, 1844, 1846, 1912, 1910, 1845, 1847, 1913, 1911
1055, 1846, 1848, 1914, 1912, 1847, 1849, 1915, 1913
1056, 1848, 1850, 1916, 1914, 1849, 1851, 1917, 1915
1057, 1852, 1854, 1920, 1918, 1853, 1855, 1921, 1919
1058, 1854, 1856, 1922, 1920, 1855, 1857, 1923, 1921
1059, 1856, 1858, 1924, 1922, 1857, 1859, 1925, 1923
1060, 1858, 1860, 1926, 1924, 1859, 1861, 1927, 1925
1061, 1860, 1862, 1928, 1926, 1861, 1863, 1929, 1927
1062, 1862, 1864, 1930, 1928, 1863, 1865, 1931, 1929
1063, 1864, 1866, 1932, 1930, 1865, 1867, 1933, 1931
1064, 1866, 1868, 1934, 1932, 1867, 1869, 1935, 1933
1065, 1868, 1870, 1936, 1934, 1869, 1871, 1937, 1935
1066, 1870, 1872, 1938, 1936, 1871, 1873, 1939, 1937
1067, 1872, 1874, 1940, 1938, 1873, 1875, 1941, 1939
1068, 1874, 1876, 1942, 1940, 1875, 1877, 1943, 1941
1069, 1876, 1878, 1944, 1942, 1877, 1879, 1945, 1943
1070, 1878, 1880, 1946, 1944, 1879, 1881, 1947, 1945
1071, 1880, 1882, 1948, 1946, 1881, 1883, 1949, 1947
1072, 1882, 1884, 1950, 1948, 1883, 1885, 1951, 1949
1073, 1884, 1886, 1952, 1950, 1885, 1887, 1953, 1951
1074, 1886, 1888, 1954, 1952, 1887, 1889, 1955, 1953
1075, 1888, 1890, 1956, 1954, 1889, 1891, 1957, 1955
1076, 1890, 1892, 1958, 1956, 1891, 1893, 1959, 1957
1077, 1892, 1894, 1960, 1958, 1893, 1895, 1961, 1959
1078, 1894, 1896, 1962, 1960, 1895, 1897, 1963, 1961
1079, 1896, 1898, 1964, 1962, 1897, 1899, 1965, 1963
1080, 1898, 1900, 1966, 1964, 1899, 1901, 1967, 1965
1081, 1900, 1902, 1968, 1966, 1901, 1903, 1969, 1967
1082, 1902, 1904, 1970, 1968, 1903, 1905, 1971, 1969
1083, 1904, 1906, 1972, 1970, 1905, 1907, 1973, 1971
1084, 1906, 1908, 1974, 1972, 1907, 1909, 1975, 1973
1085, 1908, 1910, 1976, 1974, 1909, 1911, 1977, 1975
1086, 1910, 1912, 1978, 1976, 1911, 1913, 1979, 1977
1087, 1912, 1914, 1980, 1978, 1913, 1915, 1981, 1979
1088, 1914, 1916, 1982, 1980, 1915, 1917, 1983, 1981
1089, 1918, 1920, 1986, 1984, 1919, 1921, 1987, 1985
1090, 1920, 1922, 1988, 1986, 1921, 1923, 1989, 1987
1091, 1922, 1924, 1990, 1988, 1923, 1925, 1991, 1989
1092, 1924, 1926, 1992, 1990, 1925, 1927, 1993, 1991
1093, 1926, 1928, 1994, 1992, 1927, 1929, 1995, 1993
1094, 1928, 1930, 1996, 1994, 1929, 1931, 1997, 1995
1095, 1930, 1932, 1998, 1996, 1931, 1933, 1999, 1997
1096, 1932, 1934, 2000, 1998, 1933, 1935, 2001, 1999
1097, 1934, 1936, 2002, 2000, 1935, 1937, 2003, 2001
1098, 1936, 1938, 2004, 2002, 1937, 1939, 2005, 2003
1099, 1938, 1940, 2006, 2004, 1939, 1941, 2007, 2005
1100, 1940, 1942, 2008, 2006, 1941, 1943, 2009, 2007
1101, 1942, 1944, 2010, 2008, 1943, 1945, 2011, 2009
1102, 1944, 1946, 2012, 2010, 1945, 1947, 2013, 2011
1103, 1946, 1948, 2014, 2012, 1947, 1949, 2015, 2013
1104, 1948, 1950, 2016, 2014, 1949, 1951, 2017, 2015
1105, 1950, 1952, 2018, 2016, 1951, 1953, 2019, 2017
1106, 1952, 1954, 2020, 2018, 1953, 1955, 2021, 2019
1107, 1954, 1956, 2022, 2020, 1955, 1957, 2023, 2021
1108, 1956, 1958, 2024, 2022, 1957, 1959, 2025, 2023
1109, 1958, 1960, 2026, 2024, 1959, 1961, 2027, 2025
1110, 1960, 1962, 2028, 2026, 1961, 1963, 2029, 2027
1111, 1962, 1964, 2030, 2028, 1963, 1965, 2031, 2029
1112, 1964, 1966, 2032, 2030, 1965, 1967, 2033, 2031
1113, 1966, 1968, 2034, 2032, 1967, 1969, 2035, 2033
1114, 1968, 1970, 2036, 2034, 1969, 1971, 2037, 2035
1115, 1970, 1972, 2038, 2036, 1971, 1973, 2039, 2037
1116, 1972, 1974, 2040, 2038, 1973, 1975, 2041, 2039
1117, 1974, 1976, 2042, 2040, 1975, 1977, 2043, 2041
1118, 1976, 1978, 2044, 2042, 1977, 1979, 2045, 2043
1119, 1978, 1980, 2046, 2044, 1979, 1981, 2047, 2045
1120, 1980, 1982, 2048, 2046, 1981, 1983, 2049, 2047
1121, 1984, 1986, 2052, 2050, 1985, 1987, 2053, 2051
1122, 1986, 1988, 2054, 2052, 1987, 1989, 2055, 2053
1123, 1988, 1990, 2056, 2054, 1989, 1991, 2057, 2055
1124, 1990, 1992, 2058, 2056, 1991, 1993, 2059, 2057
1125, 1992, 1994, 2060, 2058, 1993, 1995, 2061, 2059
1126, 1994, 1996, 2062, 2060, 1995, 1997, 2063, 2061
1127, 1996, 1998, 2064, 2062, 1997, 1999, 2065, 2063
1128, 1998, 2000, 2066, 2064, 1999, 2001, 2067, 2065
1129, 2000, 2002, 2068, 2066, 2001, 2003, 2069, 2067
1130, 2002, 2004, 2070, 2068, 2003, 2005, 2071, 2069
1131, 2004, 2006, 2072, 2070, 2005, 2007, 2073, 2071
1132, 2006, 2008, 2074, 2072, 2007, 2009, 2075, 2073
1133, 2008, 2010, 2076, 2074, 2009, 2011, 2077, 2075
1134, 2010, 2012, 2078, 2076, 2011, 2013, 2079, 2077
1135, 2012, 2014, 2080, 2078, 2013, 2015, 2081, 2079
1136, 2014, 2016, 2082, 2080, 2015, 2017, 2083, 2081
1137, 2016, 2018, 2084, 2082, 2017, 2019, 2085, 2083
1138, 2018, 2020, 2086, 2084, 2019, 2021, 2087, 2085
1139, 2020, 2022, 2088, 2086, 2021, 2023, 2089, 2087
1140, 2022, 2024, 2090, 2088, 2023, 2025, 2091, 2089
1141, 2024, 2026, 2092, 2090, 2025, 2027, 2093, 2091
1142, 2026, 2028, 2094, 2092, 2027, 2029, 2095, 2093
1143, 2028, 2030, 2096, 2094, 2029, 2031, 2097, 2095
1144, 2030, 2032, 2098, 2096, 2031, 2033, 2099, 2097
1145, 2032, 2034, 2100, 2098, 2033, 2035, 2101, 2099
1146, 2034, 2036, 2102, 2100, 2035, 2037, 2103, 2101
1147, 2036, 2038, 2104, 2102, 2037, 2039, 2105, 2103
1148, 2038, 2040, 2106, 2104, 2039, 2041, 2107, 2105
1149, 2040, 2042, 2108, 2106, 2041, 2043, 2109, 2107
1150, 2042, 2044, 2110, 2108, 2043, 2045, 2111, 2109
1151, 2044, 2046, 2112, 2110, 2045, 2047, 2113, 2111
1152, 2046, 2048, 2114, 2112, 2047, 2049, 2115, 2113
1153, 2050, 2052, 2118, 2116, 2051, 2053, 2119, 2117
1154, 2052, 2054, 2120, 2118, 2053, 2055, 2121, 2119
1155, 2054, 2056, 2122, 2120, 2055, 2057, 2123, 2121
1156, 2056, 2058, 2124, 2122, 2057, 2059, 2125, 2123
1157, 2058, 2060, 2126, 2124, 2059, 2061, 2127, 2125
1158, 2060, 2062, 2128, 2126, 2061, 2063, 2129, 2127
1159, 2062, 2064, 2130, 2128, 2063, 2065, 2131, 2129
1160, 2064, 2066, 2132, 2130, 2065, 2067, 2133, 2131
1161, 2066, 2068, 2134, 2132, 2067, 2069, 2135, 2133
1162, 2068, 2070, 2136, 2134, 2069, 2071, 2137, 2135
1163, 2070, 2072, 2138, 2136, 2071, 2073, 2139, 2137
1164, 2072, 2074, 2140, 2138, 2073, 2075, 2141, 2139
1165, 2074, 2076, 2142, 2140, 2075, 2077, 2143, 2141
1166, 2076, 2078, 2144, 2142, 2077, 2079, 2145, 2143
1167, 2078, 2080, 2146, 2144, 2079, 2081, 2147, 2145
1168, 2080, 2082, 2148, 2146, 2081, 2083, 2149, 2147
1169, 2082, 2084, 2150, 2148, 2083, 2085, 2151, 2149
1170, 2084, 2086, 2152, 2150, 2085, 2087, 2153, 2151
1171, 2086, 2088, 2154, 2152, 2087, 2089, 2155, 2153
1172, 2088, 2090, 2156, 2154, 2089, 2091, 2157, 2155
1173, 2090, 2092, 2158, 2156, 2091, 2093, 2159, 2157
1174, 2092, 2094, 2160, 2158, 2093, 2095, 2161, 2159
1175, 2094, 2096, 2162, 2160, 2095, 2097, 2163, 2161
1176, 2096, 2098, 2164, 2162, 2097, 2099, 2165, 2163
1177, 2098, 2100, 2166, 2164, 2099, 2101, 2167, 2165
1178, 2100, 2102, 2168, 2166, 2101, 2103, 2169, 2167
1179, 2102, 2104, 2170, 2168, 2103, 2105, 2171, 2169
1180, 2104, 2106, 2172, 2170, 2105, 2107, 2173, 2171
1181, 2106, 2108, 2174, 2172, 2107, 2109, 2175, 2173
1182, 2108, 2110, 2176, 2174, 2109, 2111, 2177, 2175
1183, 2110, 2112, 2178, 2176, 2111, 2113, 2179, 2177
1184, 2112, 2114, 2180, 2178, 2113, 2115, 2181, 2179
1185, 2116, 2118, 2184, 2182, 2117, 2119, 2185, 2183
1186, 2118, 2120, 2186, 2184, 2119, 2121, 2187, 2185
1187, 2120, 2122, 2188, 2186, 2121, 2123, 2189, 2187
1188, 2122, 2124, 2190, 2188, 2123, 2125, 2191, 2189
1189, 2124, 2126, 2192, 2190, 2125, 2127, 2193, 2191
1190, 2126, 2128, 2194, 2192, 2127, 2129, 2195, 2193
1191, 2128, 2130, 2196, 2194, 2129, 2131, 2197, 2195
1192, 2130, 2132, 2198, 2196, 2131, 2133, 2199, 2197
1193, 2132, 2134, 2200, 2198, 2133, 2135, 2201, 2199
1194, 2134, 2136, 2202, 2200, 2135, 2137, 2203, 2201
1195, 2136, 2138, 2204, 2202, 2137, 2139, 2205, 2203
1196, 2138, 2140, 2206, 2204, 2139, 2141, 2207, 2205
1197, 2140, 2142, 2208, 2206, 2141, 2143, 2209, 2207
1198, 2142, 2144, 2210, 2208, 2143, 2145, 2211, 2209
1199, 2144, 2146, 2212, 2210, 2145, 2147, 2213, 2211
1200, 2146, 2148, 2214, 2212, 2147, 2149, 2215, 2213
1201, 2148, 2150, 2216, 2214, 2149, 2151, 2217, 2215
1202, 2150, 2152, 2218, 2216, 2151, 2153, 2219, 2217
1203, 2152, 2154, 2220, 2218, 2153, 2155, 2221, 2219
1204, 2154, 2156, 2222, 2220, 2155, 2157, 2223, 2221
1205, 2156, 2158, 2224, 2222, 2157, 2159, 2225, 2223
1206, 2158, 2160, 2226, 2224, 2159, 2161, 2227, 2225
1207, 2160, 2162, 2228, 2226, 2161, 2163, 2229, 2227
1208, 2162, 2164, 2230, 2228, 2163, 2165, 2231, 2229
1209, 2164, 2166, 2232, 2230, 2165, 2167, 2233, 2231
1210, 2166, 2168, 2234, 2232, 2167, 2169, 2235, 2233
1211, 2168, 2170, 2236, 2234, 2169, 2171, 2237, 2235
1212, 2170, 2172, 2238, 2236, 2171, 2173, 2239, 2237
1213, 2172, 2174, 2240, 2238, 2173, 2175, 2241, 2239
1214, 2174, 2176, 2242, 2240, 2175, 2177, 2243, 2241
1215, 2176, 2178, 2244, 2242, 2177, 2179, 2245, 2243
1216, 2178, 2180, 2246, 2244, 2179, 2181, 2247, 2245
1217, 2182, 2184, 2250, 2248, 2183, 2185, 2251, 2249
1218, 2184, 2186, 2252, 2250, 2185, 2187, 2253, 2251
1219, 2186, 2188, 2254, 2252, 2187, 2189, 2255, 2253
1220, 2188, 2190, 2256, 2254, 2189, 2191, 2257, 2255
1221, 2190, 2192, 2258, 2256, 2191, 2193, 2259, 2257
1222, 2192, 2194, 2260, 2258, 2193, 2195, 2261, 2259
1223, 2194, 2196, 2262, 2260, 2195, 2197, 2263, 2261
1224, 2196, 2198, 2264, 2262, 2197, 2199, 2265, 2263
1225, 2198, 2200, 2266, 2264, 2199, 2201, 2267, 2265
1226, 2200, 2202, 2268, 2266, 2201, 2203, 2269, 2267
1227, 2202, 2204, 2270, 2268, 2203, 2205, 2271, 2269
1228, 2204, 2206, 2272, 2270, 2205, 2207, 2273, 2271
1229, 2206, 2208, 2274, 2272, 2207, 2209, 2275, 2273
1230, 2208, 2210, 2276, 2274, 2209, 2211, 2277, 2275
1231, 2210, 2212, 2278, 2276, 2211, 2213, 2279, 2277
1232, 2212, 2214, 2280, 2278, 2213, 2215, 2281, 2279
1233, 2214, 2216, 2282, 2280, 2215, 2217, 2283, 2281
1234, 2216, 2218, 2284, 2282, 2217, 2219, 2285, 2283
1235, 2218, 2220, 2286, 2284, 2219, 2221, 2287, 2285
1236, 2220, 2222, 2288, 2286, 2221, 2223, 2289, 2287
1237, 2222, 2224, 2290, 2288, 2223, 2225, 2291, 2289
1238, 2224, 2226, 2292, 2290, 2225, 2227, 2293, 2291
1239, 2226, 2228, 2294, 2292, 2227, 2229, 2295, 2293
1240, 2228, 2230, 2296, 2294, 2229, 2231, 2297, 2295
1241, 2230, 2232, 2298, 2296, 2231, 2233, 2299, 2297
1242, 2232, 2234, 2300, 2298, 2233, 2235, 2301, 2299
1243, 2234, 2236, 2302, 2300, 2235, 2237, 2303, 2301
1244, 2236, 2238, 2304, 2302, 2237, 2239, 2305, 2303
1245, 2238, 2240, 2306, 2304, 2239, 2241, 2307, 2305
1246, 2240, 2242, 2308, 2306, 2241, 2243, 2309, 2307
1247, 2242, 2244, 2310, 2308, 2243, 2245, 2311, 2309
1248, 2244, 2246, 2312, 2310, 2245, 2247, 2313, 2311
1249, 2248, 2250, 2316, 2314, 2249, 2251, 2317, 2315
1250, 2250, 2252, 2318, 2316, 2251, 2253, 2319, 2317
1251, 2252, 2254, 2320, 2318, 2253, 2255, 2321, 2319
1252, 2254, 2256, 2322, 2320, 2255, 2257, 2323, 2321
1253, 2256, 2258, 2324, 2322, 2257, 2259, 2325, 2323
1254, 2258, 2260, 2326, 2324, 2259, 2261, 2327, 2325
1255, 2260, 2262, 2328, 2326, 2261, 2263, 2329, 2327
1256, 2262, 2264, 2330, 2328, 2263, 2265, 2331, 2329
1257, 2264, 2266, 2332, 2330, 2265, 2267, 2333, 2331
1258, 2266, 2268, 2334, 2332, 2267, 2269, 2335, 2333
1259, 2268, 2270, 2336, 2334, 2269, 2271, 2337, 2335
1260, 2270, 2272, 2338, 2336, 2271, 2273, 2339, 2337
1261, 2272, 2274, 2340, 2338, 2273, 2275, 2341, 2339
1262, 2274, 2276, 2342, 2340, 2275, 2277, 2343, 2341
1263, 2276, 2278, 2344, 2342, 2277, 2279, 2345, 2343
1264, 2278, 2280, 2346, 2344, 2279, 2281, 2347, 2345
1265, 2280, 2282, 2348, 2346, 2281, 2283, 2349, 2347
1266, 2282, 2284, 2350, 2348, 2283, 2285, 2351, 2349
1267, 2284, 2286, 2352, 2350, 2285, 2287, 2353, 2351
1268, 2286, 2288, 2354, 2352, 2287, 2289, 2355, 2353
1269, 2288, 2290, 2356, 2354, 2289, 2291, 2357, 2355
1270, 2290, 2292, 2358, 2356, 2291, 2293, 2359, 2357
1271, 2292, 2294, 2360, 2358, 2293, 2295, 2361, 2359
1272, 2294, 2296, 2362, 2360, 2295, 2297, 2363, 2361
1273, 2296, 2298, 2364, 2362, 2297, 2299, 2365, 2363
1274, 2298, 2300, 2366, 2364, 2299, 2301, 2367, 2365
1275, 2300, 2302, 2368, 2366, 2301, 2303, 2369, 2367
1276, 2302, 2304, 2370, 2368, 2303, 2305, 2371, 2369
1277, 2304, 2306, 2372, 2370, 2305, 2307, 2373, 2371
1278, 2306, 2308, 2374, 2372, 2307, 2309, 2375, 2373
1279, 2308, 2310, 2376, 2374, 2309, 2311, 2377, 2375
1280, 2310, 2312, 2378, 2376, 2311, 2313, 2379, 2377
1281, 2314, 2316, 2382, 2380, 2315, 2317, 2383, 2381
1282, 2316, 2318, 2384, 2382, 2317, 2319, 2385, 2383
1283, 2318, 2320, 2386, 2384, 2319, 2321, 2387, 2385
1284, 2320, 2322, 2388, 2386, 2321, 2323, 2389, 2387
1285, 2322, 2324, 2390, 2388, 2323, 2325, 2391, 2389
1286, 2324, 2326, 2392, 2390, 2325, 2327, 2393, 2391
1287, 2326, 2328, 2394, 2392, 2327, 2329, 2395, 2393
1288, 2328, 2330, 2396, 2394, 2329, 2331, 2397, 2395
1289, 2330, 2332, 2398, 2396, 2331, 2333, 2399, 2397
1290, 2332, 2334, 2400, 2398, 2333, 2335, 2401, 2399
1291, 2334, 2336, 2402, 2400, 2335, 2337, 2403, 2401
1292, 2336, 2338, 2404, 2402, 2337, 2339, 2405, 2403
1293, 2338, 2340, 2406, 2404, 2339, 2341, 2407, 2405
1294, 2340, 2342, 2408, 2406, 2341, 2343, 2409, 2407
1295, 2342, 2344, 2410, 2408, 2343, 2345, 2411, 2409
1296, 2344, 2346, 2412, 2410, 2345, 2347, 2413, 2411
1297, 2346, 2348, 2414, 2412, 2347, 2349, 2415, 2413
1298, 2348, 2350, 2416, 2414, 2349, 2351, 2417, 2415
1299, 2350, 2352, 2418, 2416, 2351, 2353, 2419, 2417
1300, 2352, 2354, 2420, 2418, 2353, 2355, 2421, 2419
1301, 2354, 2356, 2422, 2420, 2355, 2357, 2423, 2421
1302, 2356, 2358, 2424, 2422, 2357, 2359, 2425, 2423
1303, 2358, 2360, 2426, 2424, 2359, 2361, 2427, 2425
1304, 2360, 2362, 2428, 2426, 2361, 2363, 2429, 2427
1305, 2362, 2364, 2430, 2428, 2363, 2365, 2431, 2429
1306, 2364, 2366, 2432, 2430, 2365, 2367, 2433, 2431
1307, 2366, 2368, 2434, 2432, 2367, 2369, 2435, 2433
1308, 2368, 2370, 2436, 2434, 2369, 2371, 2437, 2435
1309, 2370, 2372, 2438, 2436, 2371, 2373, 2439, 2437
1310, 2372, 2374, 2440, 2438, 2373, 2375, 2441, 2439
1311, 2374, 2376, 2442, 2440, 2375, 2377, 2443, 2441
1312, 2376, 2378, 2444, 2442, 2377, 2379, 2445, 2443
1313, 2380, 2382, 2448, 2446, 2381, 2383, 2449, 2447
1314, 2382, 2384, 2450, 2448, 2383, 2385, 2451, 2449
1315, 2384, 2386, 2452, 2450, 2385, 2387, 2453, 2451
1316, 2386, 2388, 2454, 2452, 2387, 2389, 2455, 2453
1317, 2388, 2390, 2456, 2454, 2389, 2391, 2457, 2455
1318, 2390, 2392, 2458, 2456, 2391, 2393, 2459, 2457
1319, 2392, 2394, 2460, 2458, 2393, 2395, 2461, 2459
1320, 2394, 2396, 2462, 2460, 2395, 2397, 2463, 2461
1321, 2396, 2398, 2464, 2462, 2397, 2399, 2465, 2463
1322, 2398, 2400, 2466, 2464, 2399, 2401, 2467, 2465
1323, 2400, 2402, 2468, 2466, 2401, 2403, 2469, 2467
1324, 2402, 2404, 2470, 2468, 2403, 2405, 2471, 2469
1325, 2404, 2406, 2472, 2470, 2405, 2407, 2473, 2471
1326, 2406, 2408, 2474, 2472, 2407, 2409, 2475, 2473
1327, 2408, 2410, 2476, 2474, 2409, 2411, 2477, 2475
1328, 2410, 2412, 2478, 2476, 2411, 2413, 2479, 2477
1329, 2412, 2414, 2480, 2478, 2413, 2415, 2481, 2479
1330, 2414, 2416, 2482, 2480, 2415, 2417, 2483, 2481
1331, 2416, 2418, 2484, 2482, 2417, 2419, 2485, 2483
1332, 2418, 2420, 2486, 2484, 2419, 2421, 2487, 2485
1333, 2420, 2422, 2488, 2486, 2421, 2423, 2489, 2487
1334, 2422, 2424, 2490, 2488, 2423, 2425, 2491, 2489
1335, 2424, 2426, 2492, 2490, 2425, 2427, 2493, 2491
1336, 2426, 2428, 2494, 2492, 2427, 2429, 2495, 2493
1337, 2428, 2430, 2496, 2494, 2429, 2431, 2497, 2495
1338, 2430, 2432, 2498, 2496, 2431, 2433, 2499, 2497
1339, 2432, 2434, 2500, 2498, 2433, 2435, 2501, 2499
1340, 2434, 2436, 2502, 2500, 2435, 2437, 2503, 2501
1341, 2436, 2438, 2504, 2502, 2437, 2439, 2505, 2503
1342, 2438, 2440, 2506, 2504, 2439, 2441, 2507, 2505
1343, 2440, 2442, 2508, 2506, 2441, 2443, 2509, 2507
1344, 2442, 2444, 2510, 2508, 2443, 2445, 2511, 2509
1345, 2446, 2448, 2514, 2512, 2447, 2449, 2515, 2513
1346, 2448, 2450, 2516, 2514, 2449, 2451, 2517, 2515
1347, 2450, 2452, 2518, 2516, 2451, 2453, 2519, 2517
1348, 2452, 2454, 2520, 2518, 2453, 2455, 2521, 2519
1349, 2454, 2456, 2522, 2520, 2455, 2457, 2523, 2521
1350, 2456, 2458, 2524, 2522, 2457, 2459, 2525, 2523
1351, 2458, 2460, 2526, 2524, 2459, 2461, 2527, 2525
1352, 2460, 2462, 2528, 2526, 2461, 2463, 2529, 2527
1353, 2462, 2464, 2530, 2528, 2463, 2465, 2531, 2529
1354, 2464, 2466, 2532, 2530, 2465, 2467, 2533, 2531
1355, 2466, 2468, 2534, 2532, 2467, 2469, 2535, 2533
1356, 2468, 2470, 2536, 2534, 2469, 2471, 2537, 2535
1357, 2470, 2472, 2538, 2536, 2471, 2473, 2539, 2537
1358, 2472, 2474, 2540, 2538, 2473, 2475, 2541, 2539
1359, 2474, 2476, 2542, 2540, 2475, 2477, 2543, 2541
1360, 2476, 2478, 2544, 2542, 2477, 2479, 2545, 2543
1361, 2478, 2480, 2546, 2544, 2479, 2481, 2547, 2545
1362, 2480, 2482, 2548, 2546, 2481, 2483, 2549, 2547
1363, 2482, 2484, 2550, 2548, 2483, 2485, 2551, 2549
1364, 2484, 2486, 2552, 2550, 2485, 2487, 2553, 2551
1365, 2486, 2488, 2554, 2552, 2487, 2489, 2555, 2553
1366, 2488, 2490, 2556, 2554, 2489, 2491, 2557, 2555
1367, 2490, 2492, 2558, 2556, 2491, 2493, 2559, 2557
1368, 2492, 2494, 2560, 2558, 2493, 2495, 2561, 2559
1369, 2494, 2496, 2562, 2560, 2495, 2497, 2563, 2561
1370, 2496, 2498, 2564, 2562, 2497, 2499, 2565, 2563
1371, 2498, 2500, 2566, 2564, 2499, 2501, 2567, 2565
1372, 2500, 2502, 2568, 2566, 2501, 2503, 2569, 2567
1373, 2502, 2504, 2570, 2568, 2503, 2505, 2571, 2569
1374, 2504, 2506, 2572, 2570, 2505, 2507, 2573, 2571
1375, 2506, 2508, 2574, 2572, 2507, 2509, 2575, 2573
1376, 2508, 2510, 2576, 2574, 2509, 2511, 2577, 2575
1377, 2512, 2514, 2580, 2578, 2513, 2515, 2581, 2579
1378, 2514, 2516, 2582, 2580, 2515, 2517, 2583, 2581
1379, 2516, 2518, 2584, 2582, 2517, 2519, 2585, 2583
1380, 2518, 2520, 2586, 2584, 2519, 2521, 2587, 2585
1381, 2520, 2522, 2588, 2586, 2521, 2523, 2589, 2587
1382, 2522, 2524, 2590, 2588, 2523, 2525, 2591, 2589
1383, 2524, 2526, 2592, 2590, 2525, 2527, 2593, 2591
1384, 2526, 2528, 2594, 2592, 2527, 2529, 2595, 2593
1385, 2528, 2530, 2596, 2594, 2529, 2531, 2597, 2595
1386, 2530, 2532, 2598, 2596, 2531, 2533, 2599, 2597
1387, 2532, 2534, 2600, 2598, 2533, 2535, 2601, 2599
1388, 2534, 2536, 2602, 2600, 2535, 2537, 2603, 2601
1389, 2536, 2538, 2604, 2602, 2537, 2539, 2605, 2603
1390, 2538, 2540, 2606, 2604, 2539, 2541, 2607, 2605
1391, 2540, 2542, 2608, 2606, 2541, 2543, 2609, 2607
1392, 2542, 2544, 2610, 2608, 2543, 2545, 2611, 2609
1393, 2544, 2546, 2612, 2610, 2545, 2547, 2613, 2611
1394, 2546, 2548, 2614, 2612, 2547, 2549, 2615, 2613
1395, 2548, 2550, 2616, 2614, 2549, 2551, 2617, 2615
1396, 2550, 2552, 2618, 2616, 2551, 2553, 2619, 2617
1397, 2552, 2554, 2620, 2618, 2553, 2555, 2621, 2619
1398, 2554, 2556, 2622, 2620, 2555, 2557, 2623, 2621
1399, 2556, 2558, 2624, 2622, 2557, 2559, 2625, 2623
1400, 2558, 2560, 2626, 2624, 2559, 2561, 2627, 2625
1401, 2560, 2562, 2628, 2626, 2561, 2563, 2629, 2627
1402, 2562, 2564, 2630, 2628, 2563, 2565, 2631, 2629
1403, 2564, 2566, 2632, 2630, 2565, 2567, 2633, 2631
1404, 2566, 2568, 2634, 2632, 2567, 2569, 2635, 2633
1405, 2568, 2570, 2636, 2634, 2569, 2571, 2637, 2635
1406, 2570, 2572, 2638, 2636, 2571, 2573, 2639, 2637
1407, 2572, 2574, 2640, 2638, 2573, 2575, 2641, 2639
1408, 2574, 2576, 2642, 2640, 2575, 2577, 2643, 2641
1409, 2578, 2580, 2646, 2644, 2579, 2581, 2647, 2645
1410, 2580, 2582, 2648, 2646, 2581, 2583, 2649, 2647
1411, 2582, 2584, 2650, 2648, 2583, 2585, 2651, 2649
1412, 2584, 2586, 2652, 2650, 2585, 2587, 2653, 2651
1413, 2586, 2588, 2654, 2652, 2587, 2589, 2655, 2653
1414, 2588, 2590, 2656, 2654, 2589, 2591, 2657, 2655
1415, 2590, 2592, 2658, 2656, 2591, 2593, 2659, 2657
1416, 2592, 2594, 2660, 2658, 2593, 2595, 2661, 2659
1417, 2594, 2596, 2662, 2660, 2595, 2597, 2663, 2661
1418, 2596, 2598, 2664, 2662, 2597, 2599, 2665, 2663
1419, 2598, 2600, 2666, 2664, 2599, 2601, 2667, 2665
1420, 2600, 2602, 2668, 2666, 2601, 2603, 2669, 2667
1421, 2602, 2604, 2670, 2668, 2603, 2605, 2671, 2669
1422, 2604, 2606, 2672, 2670, 2605, 2607, 2673, 2671
1423, 2606, 2608, 2674, 2672, 2607, 2609, 2675, 2673
1424, 2608, 2610, 2676, 2674, 2609, 2611, 2677, 2675
1425, 2610, 2612, 2678, 2676, 2611, 2613, 2679, 2677
1426, 2612, 2614, 2680, 2678, 2613, 2615, 2681, 2679
1427, 2614, 2616, 2682, 2680, 2615, 2617, 2683, 2681
1428, 2616, 2618, 2684, 2682, 2617, 2619, 2685, 2683
1429, 2618, 2620, 2686, 2684, 2619, 2621, 2687, 2685
1430, 2620, 2622, 2688, 2686, 2621, 2623, 2689, 2687
1431, 2622, 2624, 2690, 2688, 2623, 2625, 2691, 2689
1432, 2624, 2626, 2692, 2690, 2625, 2627, 2693, 2691
1433, 2626, 2628, 2694, 2692, 2627, 2629, 2695, 2693
1434, 2628, 2630, 2696, 2694, 2629, 2631, 2697, 2695
1435, 2630, 2632, 2698, 2696, 2631, 2633, 2699, 2697
1436, 2632, 2634, 2700, 2698, 2633, 2635, 2701, 2699
1437, 2634, 2636, 2702, 2700, 2635, 2637, 2703, 2701
1438, 2636, 2638, 2704, 2702, 2637, 2639, 2705, 2703
1439, 2638, 2640, 2706, 2704, 2639, 2641, 2707, 2705
1440, 2640, 2642, 2708, 2706, 2641, 2643, 2709, 2707
1441, 2644, 2646, 2712, 2710, 2645, 2647, 2713, 2711
1442, 2646, 2648, 2714, 2712, 2647, 2649, 2715, 2713
1443, 2648, 2650, 2716, 2714, 2649, 2651, 2717, 2715
1444, 2650, 2652, 2718, 2716, 2651, 2653, 2719, 2717
1445, 2652, 2654, 2720, 2718, 2653, 2655, 2721, 2719
1446, 2654, 2656, 2722, 2720, 2655, 2657, 2723, 2721
1447, 2656, 2658, 2724, 2722, 2657, 2659, 2725, 2723
1448, 2658, 2660, 2726, 2724, 2659, 2661, 2727, 2725
1449, 2660, 2662, 2728, 2726, 2661, 2663, 2729, 2727
1450, 2662, 2664, 2730, 2728, 2663, 2665, 2731, 2729
1451, 2664, 2666, 2732, 2730, 2665, 2667, 2733, 2731
1452, 2666, 2668, 2734, 2732, 2667, 2669, 2735, 2733
1453, 2668, 2670, 2736, 2734, 2669, 2671, 2737, 2735
1454, 2670, 2672, 2738, 2736, 2671, 2673, 2739, 2737
1455, 2672, 2674, 2740, 2738, 2673, 2675, 2741, 2739
1456, 2674, 2676, 2742, 2740, 2675, 2677, 2743, 2741
1457, 2676, 2678, 2744, 2742, 2677, 2679, 2745, 2743
1458, 2678, 2680, 2746, 2744, 2679, 2681, 2747, 2745
1459, 2680, 2682, 2748, 2746, 2681, 2683, 2749, 2747
1460, 2682, 2684, 2750, 2748, 2683, 2685, 2751, 2749
1461, 2684, 2686, 2752, 2750, 2685, 2687, 2753, 2751
1462, 2686, 2688, 2754, 2752, 2687, 2689, 2755, 2753
1463, 2688, 2690, 2756, 2754, 2689, 2691, 2757, 2755
1464, 2690, 2692, 2758, 2756, 2691, 2693, 2759, 2757
1465, 2692, 2694, 2760, 2758, 2693, 2695, 2761, 2759
1466, 2694, 2696, 2762, 2760, 2695, 2697, 2763, 2761
1467, 2696, 2698, 2764, 2762, 2697, 2699, 2765, 2763
1468, 2698, 2700, 2766, 2764, 2699, 2701, 2767, 2765
1469, 2700, 2702, 2768, 2766, 2701, 2703, 2769, 2767
1470, 2702, 2704, 2770, 2768, 2703, 2705, 2771, 2769
1471, 2704, 2706, 2772, 2770, 2705, 2707, 2773, 2771
1472, 2706, 2708, 2774, 2772, 2707, 2709, 2775, 2773
1473, 2710, 2712, 2778, 2776, 2711, 2713, 2779, 2777
1474, 2712, 2714, 2780, 2778, 2713, 2715, 2781, 2779
1475, 2714, 2716, 2782, 2780, 2715, 2717, 2783, 2781
1476, 2716, 2718, 2784, 2782, 2717, 2719, 2785, 2783
1477, 2718, 2720, 2786, 2784, 2719, 2721, 2787, 2785
1478, 2720, 2722, 2788, 2786, 2721, 2723, 2789, 2787
1479, 2722, 2724, 2790, 2788, 2723, 2725, 2791, 2789
1480, 2724, 2726, 2792, 2790, 2725, 2727, 2793, 2791
1481, 2726, 2728, 2794, 2792, 2727, 2729, 2795, 2793
1482, 2728, 2730, 2796, 2794, 2729, 2731, 2797, 2795
1483, 2730, 2732, 2798, 2796, 2731, 2733, 2799, 2797
1484, 2732, 2734, 2800, 2798, 2733, 2735, 2801, 2799
1485, 2734, 2736, 2802, 2800, 2735, 2737, 2803, 2801
1486, 2736, 2738, 2804, 2802, 2737, 2739, 2805, 2803
1487, 2738, 2740, 2806, 2804, 2739, 2741, 2807, 2805
1488, 2740, 2742, 2808, 2806, 2741, 2743, 2809, 2807
1489, 2742, 2744, 2810, 2808, 2743, 2745, 2811, 2809
1490, 2744, 2746, 2812, 2810, 2745, 2747, 2813, 2811
1491, 2746, 2748, 2814, 2812, 2747, 2749, 2815, 2813
1492, 2748, 2750, 2816, 2814, 2749, 2751, 2817, 2815
1493, 2750, 2752, 2818, 2816, 2751, 2753, 2819, 2817
1494, 2752, 2754, 2820, 2818, 2753, 2755, 2821, 2819
1495, 2754, 2756, 2822, 2820, 2755, 2757, 2823, 2821
1496, 2756, 2758, 2824, 2822, 2757, 2759, 2825, 2823
1497, 2758, 2760, 2826, 2824, 2759, 2761, 2827, 2825
1498, 2760, 2762, 2828, 2826, 2761, 2763, 2829, 2827
1499, 2762, 2764, 2830, 2828, 2763, 2765, 2831, 2829
1500, 2764, 2766, 2832, 2830, 2765, 2767, 2833, 2831
1501, 2766, 2768, 2834, 2832, 2767, 2769, 2835, 2833
1502, 2768, 2770, 2836, 2834, 2769, 2771, 2837, 2835
1503, 2770, 2772, 2838, 2836, 2771, 2773, 2839, 2837
1504, 2772, 2774, 2840, 2838, 2773, 2775, 2841, 2839
1505, 2776, 2778, 2844, 2842, 2777, 2779, 2845, 2843
1506, 2778, 2780, 2846, 2844, 2779, 2781, 2847, 2845
1507, 2780, 2782, 2848, 2846, 2781, 2783, 2849, 2847
1508, 2782, 2784, 2850, 2848, 2783, 2785, 2851, 2849
1509, 2784, 2786, 2852, 2850, 2785, 2787, 2853, 2851
1510, 2786, 2788, 2854, 2852, 2787, 2789, 2855, 2853
1511, 2788, 2790, 2856, 2854, 2789, 2791, 2857, 2855
1512, 2790, 2792, 2858, 2856, 2791, 2793, 2859, 2857
1513, 2792, 2794, 2860, 2858, 2793, 2795, 2861, 2859
1514, 2794, 2796, 2862, 2860, 2795, 2797, 2863, 2861
1515, 2796, 2798, 2864, 2862, 2797, 2799, 2865, 2863
1516, 2798, 2800, 2866, 2864, 2799, 2801, 2867, 2865
1517, 2800, 2802, 2868, 2866, 2801, 2803, 2869, 2867
1518, 2802, 2804, 2870, 2868, 2803, 2805, 2871, 2869
1519, 2804, 2806, 2872, 2870, 2805, 2807, 2873, 2871
1520, 2806, 2808, 2874, 2872, 2807, 2809, 2875, 2873
1521, 2808, 2810, 2876, 2874, 2809, 2811, 2877, 2875
1522, 2810, 2812, 2878, 2876, 2811, 2813, 2879, 2877
1523, 2812, 2814, 2880, 2878, 2813, 2815, 2881, 2879
1524, 2814, 2816, 2882, 2880, 2815, 2817, 2883, 2881
1525, 2816, 2818, 2884, 2882, 2817, 2819, 2885, 2883
1526, 2818, 2820, 2886, 2884, 2819, 2821, 2887, 2885
1527, 2820, 2822, 2888, 2886, 2821, 2823, 2889, 2887
1528, 2822, 2824, 2890, 2888, 2823, 2825, 2891, 2889
1529, 2824, 2826, 2892, 2890, 2825, 2827, 2893, 2891
1530, 2826, 2828, 2894, 2892, 2827, 2829, 2895, 2893
1531, 2828, 2830, 2896, 2894, 2829, 2831, 2897, 2895
1532, 2830, 2832, 2898, 2896, 2831, 2833, 2899, 2897
1533, 2832, 2834, 2900, 2898, 2833, 2835, 2901, 2899
1534, 2834, 2836, 2902, 2900, 2835, 2837, 2903, 2901
1535, 2836, 2838, 2904, 2902, 2837, 2839, 2905, 2903
1536, 2838, 2840, 2906, 2904, 2839, 2841, 2907, 2905
1537, 2842, 2844, 2910, 2908, 2843, 2845, 2911, 2909
1538, 2844, 2846, 2912, 2910, 2845, 2847, 2913, 2911
1539, 2846, 2848, 2914, 2912, 2847, 2849, 2915, 2913
1540, 2848, 2850, 2916, 2914, 2849, 2851, 2917, 2915
1541, 2850, 2852, 2918, 2916, 2851, 2853, 2919, 2917
1542, 2852, 2854, 2920, 2918, 2853, 2855, 2921, 2919
1543, 2854, 2856, 2922, 2920, 2855, 2857, 2923, 2921
1544, 2856, 2858, 2924, 2922, 2857, 2859, 2925, 2923
1545, 2858, 2860, 2926, 2924, 2859, 2861, 2927, 2925
1546, 2860, 2862, 2928, 2926, 2861, 2863, 2929, 2927
1547, 2862, 2864, 2930, 2928, 2863, 2865, 2931, 2929
1548, 2864, 2866, 2932, 2930, 2865, 2867, 2933, 2931
1549, 2866, 2868, 2934, 2932, 2867, 2869, 2935, 2933
1550, 2868, 2870, 2936, 2934, 2869, 2871, 2937, 2935
1551, 2870, 2872, 2938, 2936, 2871, 2873, 2939, 2937
1552, 2872, 2874, 2940, 2938, 2873, 2875, 2941, 2939
1553, 2874, 2876, 2942, 2940, 2875, 2877, 2943, 2941
1554, 2876, 2878, 2944, 2942, 2877, 2879, 2945, 2943
1555, 2878, 2880, 2946, 2944, 2879, 2881, 2947, 2945
1556, 2880, 2882, 2948, 2946, 2881, 2883, 2949, 2947
1557, 2882, 2884, 2950, 2948, 2883, 2885, 2951, 2949
1558, 2884, 2886, 2952, 2950, 2885, 2887, 2953, 2951
1559, 2886, 2888, 2954, 2952, 2887, 2889, 2955, 2953
1560, 2888, 2890, 2956, 2954, 2889, 2891, 2957, 2955
1561, 2890, 2892, 2958, 2956, 2891, 2893, 2959, 2957
1562, 2892, 2894, 2960, 2958, 2893, 2895, 2961, 2959
1563, 2894, 2896, 2962, 2960, 2895, 2897, 2963, 2961
1564, 2896, 2898, 2964, 2962, 2897, 2899, 2965, 2963
1565, 2898, 2900, 2966, 2964, 2899, 2901, 2967, 2965
1566, 2900, 2902, 2968, 2966, 2901, 2903, 2969, 2967
1567, 2902, 2904, 2970, 2968, 2903, 2905, 2971, 2969
1568, 2904, 2906, 2972, 2970, 2905, 2907, 2973, 2971
1569, 2908, 2910, 2976, 2974, 2909, 2911, 2977, 2975
1570, 2910, 2912, 2978, 2976, 2911, 2913, 2979, 2977
1571, 2912, 2914, 2980, 2978, 2913, 2915, 2981, 2979
1572, 2914, 2916, 2982, 2980, 2915, 2917, 2983, 2981
1573, 2916, 2918, 2984, 2982, 2917, 2919, 2985, 2983
1574, 2918, 2920, 2986, 2984, 2919, 2921, 2987, 2985
1575, 2920, 2922, 2988, 2986, 2921, 2923, 2989, 2987
1576, 2922, 2924, 2990, 2988, 2923, 2925, 2991, 2989
1577, 2924, 2926, 2992, 2990, 2925, 2927, 2993, 2991
1578, 2926, 2928, 2994, 2992, 2927, 2929, 2995, 2993
1579, 2928, 2930, 2996, 2994, 2929, 2931, 2997, 2995
1580, 2930, 2932, 2998, 2996, 2931, 2933, 2999, 2997
1581, 2932, 2934, 3000, 2998, 2933, 2935, 3001, 2999
1582, 2934, 2936, 3002, 3000, 2935, 2937, 3003, 3001
1583, 2936, 2938, 3004, 3002, 2937, 2939, 3005, 3003
1584, 2938, 2940, 3006, 3004, 2939, 2941, 3007, 3005
1585, 2940, 2942, 3008, 3006, 2941, 2943, 3009, 3007
1586, 2942, 2944, 3010, 3008, 2943, 2945, 3011, 3009
1587, 2944, 2946, 3012, 3010, 2945, 2947, 3013, 3011
1588, 2946, 2948, 3014, 3012, 2947, 2949, 3015, 3013
1589, 2948, 2950, 3016, 3014, 2949, 2951, 3017, 3015
1590, 2950, 2952, 3018, 3016, 2951, 2953, 3019, 3017
1591, 2952, 2954, 3020, 3018, 2953, 2955, 3021, 3019
1592, 2954, 2956, 3022, 3020, 2955, 2957, 3023, 3021
1593, 2956, 2958, 3024, 3022, 2957, 2959, 3025, 3023
1594, 2958, 2960, 3026, 3024, 2959, 2961, 3027, 3025
1595, 2960, 2962, 3028, 3026, 2961, 2963, 3029, 3027
1596, 2962, 2964, 3030, 3028, 2963, 2965, 3031, 3029
1597, 2964, 2966, 3032, 3030, 2965, 2967, 3033, 3031
1598, 2966, 2968, 3034, 3032, 2967, 2969, 3035, 3033
1599, 2968, 2970, 3036, 3034, 2969, 2971, 3037, 3035
1600, 2970, 2972, 3038, 3036, 2971, 2973, 3039, 3037
1601, 2974, 2976, 3042, 3040, 2975, 2977, 3043, 3041
1602, 2976, 2978, 3044, 3042, 2977, 2979, 3045, 3043
1603, 2978, 2980, 3046, 3044, 2979, 2981, 3047, 3045
1604, 2980, 2982, 3048, 3046, 2981, 2983, 3049, 3047
1605, 2982, 2984, 3050, 3048, 2983, 2985, 3051, 3049
1606, 2984, 2986, 3052, 3050, 2985, 2987, 3053, 3051
1607, 2986, 2988, 3054, 3052, 2987, 2989, 3055, 3053
1608, 2988, 2990, 3056, 3054, 2989, 2991, 3057, 3055
1609, 2990, 2992, 3058, 3056, 2991, 2993, 3059, 3057
1610, 2992, 2994, 3060, 3058, 2993, 2995, 3061, 3059
1611, 2994, 2996, 3062, 3060, 2995, 2997, 3063, 3061
1612, 2996, 2998, 3064, 3062, 2997, 2999, 3065, 3063
1613, 2998, 3000, 3066, 3064, 2999, 3001, 3067, 3065
1614, 3000, 3002, 3068, 3066, 3001, 3003, 3069, 3067
1615, 3002, 3004, 3070, 3068, 3003, 3005, 3071, 3069
1616, 3004, 3006, 3072, 3070, 3005, 3007, 3073, 3071
1617, 3006, 3008, 3074, 3072, 3007, 3009, 3075, 3073
1618, 3008, 3010, 3076, 3074, 3009, 3011, 3077, 3075
1619, 3010, 3012, 3078, 3076, 3011, 3013, 3079, 3077
1620, 3012, 3014, 3080, 3078, 3013, 3015, 3081, 3079
1621, 3014, 3016, 3082, 3080, 3015, 3017, 3083, 3081
1622, 3016, 3018, 3084, 3082, 3017, 3019, 3085, 3083
1623, 3018, 3020, 3086, 3084, 3019, 3021, 3087, 3085
1624, 3020, 3022, 3088, 3086, 3021, 3023, 3089, 3087
1625, 3022, 3024, 3090, 3088, 3023, 3025, 3091, 3089
1626, 3024, 3026, 3092, 3090, 3025, 3027, 3093, 3091
1627, 3026, 3028, 3094, 3092, 3027, 3029, 3095, 3093
1628, 3028, 3030, 3096, 3094, 3029, 3031, 3097, 3095
1629, 3030, 3032, 3098, 3096, 3031, 3033, 3099, 3097
1630, 3032, 3034, 3100, 3098, 3033, 3035, 3101, 3099
1631, 3034, 3036, 3102, 3100, 3035, 3037, 3103, 3101
1632, 3036, 3038, 3104, 3102, 3037, 3039, 3105, 3103
1633, 3040, 3042, 3108, 3106, 3041, 3043, 3109, 3107
1634, 3042, 3044, 3110, 3108, 3043, 3045, 3111, 3109
1635, 3044, 3046, 3112, 3110, 3045, 3047, 3113, 3111
1636, 3046, 3048, 3114, 3112, 3047, 3049, 3115, 3113
1637, 3048, 3050, 3116, 3114, 3049, 3051, 3117, 3115
1638, 3050, 3052, 3118, 3116, 3051, 3053, 3119, 3117
1639, 3052, 3054, 3120, 3118, 3053, 3055, 3121, 3119
1640, 3054, 3056, 3122, 3120, 3055, 3057, 3123, 3121
1641, 3056, 3058, 3124, 3122, 3057, 3059, 3125, 3123
1642, 3058, 3060, 3126, 3124, 3059, 3061, 3127, 3125
1643, 3060, 3062, 3128, 3126, 3061, 3063, 3129, 3127
1644, 3062, 3064, 3130, 3128, 3063, 3065, 3131, 3129
1645, 3064, 3066, 3132, 3130, 3065, 3067, 3133, 3131
1646, 3066, 3068, 3134, 3132, 3067, 3069, 3135, 3133
1647, 3068, 3070, 3136, 3134, 3069, 3071, 3137, 3135
1648, 3070, 3072, 3138, 3136, 3071, 3073, 3139, 3137
1649, 3072, 3074, 3140, 3138, 3073, 3075, 3141, 3139
1650, 3074, 3076, 3142, 3140, 3075, 3077, 3143, 3141
1651, 3076, 3078, 3144, 3142, 3077, 3079, 3145, 3143
1652, 3078, 3080, 3146, 3144, 3079, 3081, 3147, 3145
1653, 3080, 3082, 3148, 3146, 3081, 3083, 3149, 3147
1654, 3082, 3084, 3150, 3148, 3083, 3085, 3151, 3149
1655, 3084, 3086, 3152, 3150, 3085, 3087, 3153, 3151
1656, 3086, 3088, 3154, 3152, 3087, 3089, 3155, 3153
1657, 3088, 3090, 3156, 3154, 3089, 3091, 3157, 3155
1658, 3090, 3092, 3158, 3156, 3091, 3093, 3159, 3157
1659, 3092, 3094, 3160, 3158, 3093, 3095, 3161, 3159
1660, 3094, 3096, 3162, 3160, 3095, 3097, 3163, 3161
1661, 3096, 3098, 3164, 3162, 3097, 3099, 3165, 3163
1662, 3098, 3100, 3166, 3164, 3099, 3101, 3167, 3165
1663, 3100, 3102, 3168, 3166, 3101, 3103, 3169, 3167
1664, 3102, 3104, 3170, 3168, 3103, 3105, 3171, 3169
1665, 3106, 3108, 3174, 3172, 3107, 3109, 3175, 3173
1666, 3108, 3110, 3176, 3174, 3109, 3111, 3177, 3175
1667, 3110, 3112, 3178, 3176, 3111, 3113, 3179, 3177
1668, 3112, 3114, 3180, 3178, 3113, 3115, 3181, 3179
1669, 3114, 3116, 3182, 3180, 3115, 3117, 3183, 3181
1670, 3116, 3118, 3184, 3182, 3117, 3119, 3185, 3183
1671, 3118, 3120, 3186, 3184, 3119, 3121, 3187, 3185
1672, 3120, 3122, 3188, 3186, 3121, 3123, 3189, 3187
1673, 3122, 3124, 3190, 3188, 3123, 3125, 3191, 3189
1674, 3124, 3126, 3192, 3190, 3125, 3127, 3193, 3191
1675, 3126, 3128, 3194, 3192, 3127, 3129, 3195, 3193
1676, 3128, 3130, 3196, 3194, 3129, 3131, 3197, 3195
1677, 3130, 3132, 3198, 3196, 3131, 3133, 3199, 3197
1678, 3132, 3134, 3200, 3198, 3133, 3135, 3201, 3199
1679, 3134, 3136, 3202, 3200, 3135, 3137, 3203, 3201
1680, 3136, 3138, 3204, 3202, 3137, 3139, 3205, 3203
1681, 3138, 3140, 3206, 3204, 3139, 3141, 3207, 3205
1682, 3140, 3142, 3208, 3206, 3141, 3143, 3209, 3207
1683, 3142, 3144, 3210, 3208, 3143, 3145, 3211, 3209
1684, 3144, 3146, 3212, 3210, 3145, 3147, 3213, 3211
1685, 3146, 3148, 3214, 3212, 3147, 3149, 3215, 3213
1686, 3148, 3150, 3216, 3214, 3149, 3151, 3217, 3215
1687, 3150, 3152, 3218, 3216, 3151, 3153, 3219, 3217
1688, 3152, 3154, 3220, 3218, 3153, 3155, 3221, 3219
1689, 3154, 3156, 3222, 3220, 3155, 3157, 3223, 3221
1690, 3156, 3158, 3224, 3222, 3157, 3159, 3225, 3223
1691, 3158, 3160, 3226, 3224, 3159, 3161, 3227, 3225
1692, 3160, 3162, 3228, 3226, 3161, 3163, 3229, 3227
1693, 3162, 3164, 3230, 3228, 3163, 3165, 3231, 3229
1694, 3164, 3166, 3232, 3230, 3165, 3167, 3233, 3231
1695, 3166, 3168, 3234, 3232, 3167, 3169, 3235, 3233
1696, 3168, 3170, 3236, 3234, 3169, 3171, 3237, 3235
1697, 3172, 3174, 3240, 3238, 3173, 3175, 3241, 3239
1698, 3174, 3176, 3242, 3240, 3175, 3177, 3243, 3241
1699, 3176, 3178, 3244, 3242, 3177, 3179, 3245, 3243
1700, 3178, 3180, 3246, 3244, 3179, 3181, 3247, 3245
1701, 3180, 3182, 3248, 3246, 3181, 3183, 3249, 3247
1702, 3182, 3184, 3250, 3248, 3183, 3185, 3251, 3249
1703, 3184, 3186, 3252, 3250, 3185, 3187, 3253, 3251
1704, 3186, 3188, 3254, 3252, 3187, 3189, 3255, 3253
1705, 3188, 3190, 3256, 3254, 3189, 3191, 3257, 3255
1706, 3190, 3192, 3258, 3256, 3191, 3193, 3259, 3257
1707, 3192, 3194, 3260, 3258, 3193, 3195, 3261, 3259
1708, 3194, 3196, 3262, 3260, 3195, 3197, 3263, 3261
1709, 3196, 3198, 3264, 3262, 3197, 3199, 3265, 3263
1710, 3198, 3200, 3266, 3264, 3199, 3201, 3267, 3265
1711, 3200, 3202, 3268, 3266, 3201, 3203, 3269, 3267
1712, 3202, 3204, 3270, 3268, 3203, 3205, 3271, 3269
1713, 3204, 3206, 3272, 3270, 3205, 3207, 3273, 3271
1714, 3206, 3208, 3274, 3272, 3207, 3209, 3275, 3273
1715, 3208, 3210, 3276, 3274, 3209, 3211, 3277, 3275
1716, 3210, 3212, 3278, 3276, 3211, 3213, 3279, 3277
1717, 3212, 3214, 3280, 3278, 3213, 3215, 3281, 3279
1718, 3214, 3216, 3282, 3280, 3215, 3217, 3283, 3281
1719, 3216, 3218, 3284, 3282, 3217, 3219, 3285, 3283
1720, 3218, 3220, 3286, 3284, 3219, 3221, 3287, 3285
1721, 3220, 3222, 3288, 3286, 3221, 3223, 3289, 3287
1722, 3222, 3224, 3290, 3288, 3223, 3225, 3291, 3289
1723, 3224, 3226, 3292, 3290, 3225, 3227, 3293, 3291
1724, 3226, 3228, 3294, 3292, 3227, 3229, 3295, 3293
1725, 3228, 3230, 3296, 3294, 3229, 3231, 3297, 3295
1726, 3230, 3232, 3298, 3296, 3231, 3233, 3299, 3297
1727, 3232, 3234, 3300, 3298, 3233, 3235, 3301, 3299
1728, 3234, 3236, 3302, 3300, 3235, 3237, 3303, 3301
1729, 3238, 3240, 3306, 3304, 3239, 3241, 3307, 3305
1730, 3240, 3242, 3308, 3306, 3241, 3243, 3309, 3307
1731, 3242, 3244, 3310, 3308, 3243, 3245, 3311, 3309
1732, 3244, 3246, 3312, 3310, 3245, 3247, 3313, 3311
1733, 3246, 3248, 3314, 3312, 3247, 3249, 3315, 3313
1734, 3248, 3250, 3316, 3314, 3249, 3251, 3317, 3315
1735, 3250, 3252, 3318, 3316, 3251, 3253, 3319, 3317
1736, 3252, 3254, 3320, 3318, 3253, 3255, 3321, 3319
1737, 3254, 3256, 3322, 3320, 3255, 3257, 3323, 3321
1738, 3256, 3258, 3324, 3322, 3257, 3259, 3325, 3323
1739, 3258, 3260, 3326, 3324, 3259, 3261, 3327, 3325
1740, 3260, 3262, 3328, 3326, 3261, 3263, 3329, 3327
1741, 3262, 3264, 3330, 3328, 3263, 3265, 3331, 3329
1742, 3264, 3266, 3332, 3330, 3265, 3267, 3333, 3331
1743, 3266, 3268, 3334, 3332, 3267, 3269, 3335, 3333
1744, 3268, 3270, 3336, 3334, 3269, 3271, 3337, 3335
1745, 3270, 3272, 3338, 3336, 3271, 3273, 3339, 3337
1746, 3272, 3274, 3340, 3338, 3273, 3275, 3341, 3339
1747, 3274, 3276, 3342, 3340, 3275, 3277, 3343, 3341
1748, 3276, 3278, 3344, 3342, 3277, 3279, 3345, 3343
1749, 3278, 3280, 3346, 3344, 3279, 3281, 3347, 3345
1750, 3280, 3282, 3348, 3346, 3281, 3283, 3349, 3347
1751, 3282, 3284, 3350, 3348, 3283, 3285, 3351, 3349
1752, 3284, 3286, 3352, 3350, 3285, 3287, 3353, 3351
1753, 3286, 3288, 3354, 3352, 3287, 3289, 3355, 3353
1754, 3288, 3290, 3356, 3354, 3289, 3291, 3357, 3355
1755, 3290, 3292, 3358, 3356, 3291, 3293, 3359, 3357
1756, 3292, 3294, 3360, 3358, 3293, 3295, 3361, 3359
1757, 3294, 3296, 3362, 3360, 3295, 3297, 3363, 3361
1758, 3296, 3298, 3364, 3362, 3297, 3299, 3365, 3363
1759, 3298, 3300, 3366, 3364, 3299, 3301, 3367, 3365
1760, 3300, 3302, 3368, 3366, 3301, 3303, 3369, 3367
1761, 3304, 3306, 3372, 3370, 3305, 3307, 3373, 3371
1762, 3306, 3308, 3374, 3372, 3307, 3309, 3375, 3373
1763, 3308, 3310, 3376, 3374, 3309, 3311, 3377, 3375
1764, 3310, 3312, 3378, 3376, 3311, 3313, 3379, 3377
1765, 3312, 3314, 3380, 3378, 3313, 3315, 3381, 3379
1766, 3314, 3316, 3382, 3380, 3315, 3317, 3383, 3381
1767, 3316, 3318, 3384, 3382, 3317, 3319, 3385, 3383
1768, 3318, 3320, 3386, 3384, 3319, 3321, 3387, 3385
1769, 3320, 3322, 3388, 3386, 3321, 3323, 3389, 3387
1770, 3322, 3324, 3390, 3388, 3323, 3325, 3391, 3389
1771, 3324, 3326, 3392, 3390, 3325, 3327, 3393, 3391
1772, 3326, 3328, 3394, 3392, 3327, 3329, 3395, 3393
1773, 3328, 3330, 3396, 3394, 3329, 3331, 3397, 3395
1774, 3330, 3332, 3398, 3396, 3331, 3333, 3399, 3397
1775, 3332, 3334, 3400, 3398, 3333, 3335, 3401, 3399
1776, 3334, 3336, 3402, 3400, 3335, 3337, 3403, 3401
1777, 3336, 3338, 3404, 3402, 3337, 3339, 3405, 3403
1778, 3338, 3340, 3406, 3404, 3339, 3341, 3407, 3405
1779, 3340, 3342, 3408, 3406, 3341, 3343, 3409, 3407
1780, 3342, 3344, 3410, 3408, 3343, 3345, 3411, 3409
1781, 3344, 3346, 3412, 3410, 3345, 3347, 3413, 3411
1782, 3346, 3348, 3414, 3412, 3347, 3349, 3415, 3413
1783, 3348, 3350, 3416, 3414, 3349, 3351, 3417, 3415
1784, 3350, 3352, 3418, 3416, 3351, 3353, 3419, 3417
1785, 3352, 3354, 3420, 3418, 3353, 3355, 3421, 3419
1786, 3354, 3356, 3422, 3420, 3355, 3357, 3423, 3421
1787, 3356, 3358, 3424, 3422, 3357, 3359, 3425, 3423
1788, 3358, 3360, 3426, 3424, 3359, 3361, 3427, 3425
1789, 3360, 3362, 3428, 3426, 3361, 3363, 3429, 3427
1790, 3362, 3364, 3430, 3428, 3363, 3365, 3431, 3429
1791, 3364, 3366, 3432, 3430, 3365, 3367, 3433, 3431
1792, 3366, 3368, 3434, 3432, 3367, 3369, 3435, 3433
1793, 3370, 3372, 3438, 3436, 3371, 3373, 3439, 3437
1794, 3372, 3374, 3440, 3438, 3373, 3375, 3441, 3439
1795, 3374, 3376, 3442, 3440, 3375, 3377, 3443, 3441
1796, 3376, 3378, 3444, 3442, 3377, 3379, 3445, 3443
1797, 3378, 3380, 3446, 3444, 3379, 3381, 3447, 3445
1798, 3380, 3382, 3448, 3446, 3381, 3383, 3449, 3447
1799, 3382, 3384, 3450, 3448, 3383, 3385, 3451, 3449
1800, 3384, 3386, 3452, 3450, 3385, 3387, 3453, 3451
1801, 3386, 3388, 3454, 3452, 3387, 3389, 3455, 3453
1802, 3388, 3390, 3456, 3454, 3389, 3391, 3457, 3455
1803, 3390, 3392, 3458, 3456, 3391, 3393, 3459, 3457
1804, 3392, 3394, 3460, 3458, 3393, 3395, 3461, 3459
1805, 3394, 3396, 3462, 3460, 3395, 3397, 3463, 3461
1806, 3396, 3398, 3464, 3462, 3397, 3399, 3465, 3463
1807, 3398, 3400, 3466, 3464, 3399, 3401, 3467, 3465
1808, 3400, 3402, 3468, 3466, 3401, 3403, 3469, 3467
1809, 3402, 3404, 3470, 3468, 3403, 3405, 3471, 3469
1810, 3404, 3406, 3472, 3470, 3405, 3407, 3473, 3471
1811, 3406, 3408, 3474, 3472, 3407, 3409, 3475, 3473
1812, 3408, 3410, 3476, 3474, 3409, 3411, 3477, 3475
1813, 3410, 3412, 3478, 3476, 3411, 3413, 3479, 3477
1814, 3412, 3414, 3480, 3478, 3413, 3415, 3481, 3479
1815, 3414, 3416, 3482, 3480, 3415, 3417, 3483, 3481
1816, 3416, 3418, 3484, 3482, 3417, 3419, 3485, 3483
1817, 3418, 3420, 3486, 3484, 3419, 3421, 3487, 3485
1818, 3420, 3422, 3488, 3486, 3421, 3423, 3489, 3487
1819, 3422, 3424, 3490, 3488, 3423, 3425, 3491, 3489
1820, 3424, 3426, 3492, 3490, 3425, 3427, 3493, 3491
1821, 3426, 3428, 3494, 3492, 3427, 3429, 3495, 3493
1822, 3428, 3430, 3496, 3494, 3429, 3431, 3497, 3495
1823, 3430, 3432, 3498, 3496, 3431, 3433, 3499, 3497
1824, 3432, 3434, 3500, 3498, 3433, 3435, 3501, 3499
1825, 1324, 1390, 3504, 3502, 1325, 1391, 3505, 3503
1826, 1390, 1456, 3506, 3504, 1391, 1457, 3507, 3505
1827, 1456, 1522, 3508, 3506, 1457, 1523, 3509, 3507
1828, 1522, 1588, 3510, 3508, 1523, 1589, 3511, 3509
1829, 1588, 1654, 3512, 3510, 1589, 1655, 3513, 3511
1830, 1654, 1720, 3514, 3512, 1655, 1721, 3515, 3513
1831, 1720, 1786, 3516, 3514, 1721, 1787, 3517, 3515
1832, 1786, 1852, 3518, 3516, 1787, 1853, 3519, 3517
1833, 1852, 1918, 3520, 3518, 1853, 1919, 3521, 3519
1834, 1918, 1984, 3522, 3520, 1919, 1985, 3523, 3521
1835, 1984, 2050, 3524, 3522, 1985, 2051, 3525, 3523
1836, 2050, 2116, 3526, 3524, 2051, 2117, 3527, 3525
1837, 2116, 2182, 3528, 3526, 2117, 2183, 3529, 3527
1838, 2182, 2248, 3530, 3528, 2183, 2249, 3531, 3529
1839, 2248, 2314, 3532, 3530, 2249, 2315, 3533, 3531
1840, 2314, 2380, 3534, 3532, 2315, 2381, 3535, 3533
1841, 2380, 2446, 3536, 3534, 2381, 2447, 3537, 3535
1842, 2446, 2512, 3538, 3536, 2447, 2513, 3539, 3537
1843, 2512, 2578, 3540, 3538, 2513, 2579, 3541, 3539
1844, 2578, 2644, 3542, 3540, 2579, 2645, 3543, 3541
1845, 2644, 2710, 3544, 3542, 2645, 2711, 3545, 3543
1846, 2710, 2776, 3546, 3544, 2711, 2777, 3547, 3545
1847, 2776, 2842, 3548, 3546, 2777, 2843, 3549, 3547
1848, 2842, 2908, 3550, 3548, 2843, 2909, 3551, 3549
1849, 2908, 2974, 3552, 3550, 2909, 2975, 3553, 3551
1850, 2974, 3040, 3554, 3552, 2975, 3041, 3555, 3553
1851, 3040, 3106, 3556, 3554, 3041, 3107, 3557, 3555
1852, 3106, 3172, 3558, 3556, 3107, 3173, 3559, 3557
1853, 3172, 3238, 3560, 3558, 3173, 3239, 3561, 3559
1854, 3238, 3304, 3562, 3560, 3239, 3305, 3563, 3561
1855, 3304, 3370, 3564, 3562, 3305, 3371, 3565, 3563
1856, 3370, 3436, 3566, 3564, 3371, 3437, 3567, 3565
1857, 3502, 3504, 3570, 3568, 3503, 3505, 3571, 3569
1858, 3504, 3506, 3572, 3570, 3505, 3507, 3573, 3571
1859, 3506, 3508, 3574, 3572, 3507, 3509, 3575, 3573
1860, 3508, 3510, 3576, 3574, 3509, 3511, 3577, 3575
1861, 3510, 3512, 3578, 3576, 3511, 3513, 3579, 3577
1862, 3512, 3514, 3580, 3578, 3513, 3515, 3581, 3579
1863, 3514, 3516, 3582, 3580, 3515, 3517, 3583, 3581
1864, 3516, 3518, 3584, 3582, 3517, 3519, 3585, 3583
1865, 3518, 3520, 3586, 3584, 3519, 3521, 3587, 3585
1866, 3520, 3522, 3588, 3586, 3521, 3523, 3589, 3587
1867, 3522, 3524, 3590, 3588, 3523, 3525, 3591, 3589
1868, 3524, 3526, 3592, 3590, 3525, 3527, 3593, 3591
1869, 3526, 3528, 3594, 3592, 3527, 3529, 3595, 3593
1870, 3528, 3530, 3596, 3594, 3529, 3531, 3597, 3595
1871, 3530, 3532, 3598, 3596, 3531, 3533, 3599, 3597
1872, 3532, 3534, 3600, 3598, 3533, 3535, 3601, 3599
1873, 3534, 3536, 3602, 3600, 3535, 3537, 3603, 3601
1874, 3536, 3538, 3604, 3602, 3537, 3539, 3605, 3603
1875, 3538, 3540, 3606, 3604, 3539, 3541, 3607, 3605
1876, 3540, 3542, 3608, 3606, 3541, 3543, 3609, 3607
1877, 3542, 3544, 3610, 3608, 3543, 3545, 3611, 3609
1878, 3544, 3546, 3612, 3610, 3545, 3547, 3613, 3611
1879, 3546, 3548, 3614, 3612, 3547, 3549, 3615, 3613
1880, 3548, 3550, 3616, 3614, 3549, 3551, 3617, 3615
1881, 3550, 3552, 3618, 3616, 3551, 3553, 3619, 3617
1882, 3552, 3554, 3620, 3618, 3553, 3555, 3621, 3619
1883, 3554, 3556, 3622, 3620, 3555, 3557, 3623, 3621
1884, 3556, 3558, 3624, 3622, 3557, 3559, 3625, 3623
1885, 3558, 3560, 3626, 3624, 3559, 3561, 3627, 3625
1886, 3560, 3562, 3628, 3626, 3561, 3563, 3629, 3627
1887, 3562, 3564, 3630, 3628, 3563, 3565, 3631, 3629
1888, 3564, 3566, 3632, 3630, 3565, 3567, 3633, 3631
1889, 3568, 3570, 3636, 3634, 3569, 3571, 3637, 3635
1890, 3570, 3572, 3638, 3636, 3571, 3573, 3639, 3637
1891, 3572, 3574, 3640, 3638, 3573, 3575, 3641, 3639
1892, 3574, 3576, 3642, 3640, 3575, 3577, 3643, 3641
1893, 3576, 3578, 3644, 3642, 3577, 3579, 3645, 3643
1894, 3578, 3580, 3646, 3644, 3579, 3581, 3647, 3645
1895, 3580, 3582, 3648, 3646, 3581, 3583, 3649, 3647
1896, 3582, 3584, 3650, 3648, 3583, 3585, 3651, 3649
1897, 3584, 3586, 3652, 3650, 3585, 3587, 3653, 3651
1898, 3586, 3588, 3654, 3652, 3587, 3589, 3655, 3653
1899, 3588, 3590, 3656, 3654, 3589, 3591, 3657, 3655
1900, 3590, 3592, 3658, 3656, 3591, 3593, 3659, 3657
1901, 3592, 3594, 3660, 3658, 3593, 3595, 3661, 3659
1902, 3594, 3596, 3662, 3660, 3595, 3597, 3663, 3661
1903, 3596, 3598, 3664, 3662, 3597, 3599, 3665, 3663
1904, 3598, 3600, 3666, 3664, 3599, 3601, 3667, 3665
1905, 3600, 3602, 3668, 3666, 3601, 3603, 3669, 3667
1906, 3602, 3604, 3670, 3668, 3603, 3605, 3671, 3669
1907, 3604, 3606, 3672, 3670, 3605, 3607, 3673, 3671
1908, 3606, 3608, 3674, 3672, 3607, 3609, 3675, 3673
1909, 3608, 3610, 3676, 3674, 3609, 3611, 3677, 3675
1910, 3610, 3612, 3678, 3676, 3611, 3613, 3679, 3677
1911, 3612, 3614, 3680, 3678, 3613, 3615, 3681, 3679
1912, 3614, 3616, 3682, 3680, 3615, 3617, 3683, 3681
1913, 3616, 3618, 3684, 3682, 3617, 3619, 3685, 3683
1914, 3618, 3620, 3686, 3684, 3619, 3621, 3687, 3685
1915, 3620, 3622, 3688, 3686, 3621, 3623, 3689, 3687
1916, 3622, 3624, 3690, 3688, 3623, 3625, 3691, 3689
1917, 3624, 3626, 3692, 3690, 3625, 3627, 3693, 3691
1918, 3626, 3628, 3694, 3692, 3627, 3629, 3695, 3693
1919, 3628, 3630, 3696, 3694, 3629, 3631, 3697, 3695
1920, 3630, 3632, 3698, 3696, 3631, 3633, 3699, 3697
1921, 3634, 3636, 3702, 3700, 3635, 3637, 3703, 3701
1922, 3636, 3638, 3704, 3702, 3637, 3639, 3705, 3703
1923, 3638, 3640, 3706, 3704, 3639, 3641, 3707, 3705
1924, 3640, 3642, 3708, 3706, 3641, 3643, 3709, 3707
1925, 3642, 3644, 3710, 3708, 3643, 3645, 3711, 3709
1926, 3644, 3646, 3712, 3710, 3645, 3647, 3713, 3711
1927, 3646, 3648, 3714, 3712, 3647, 3649, 3715, 3713
1928, 3648, 3650, 3716, 3714, 3649, 3651, 3717, 3715
1929, 3650, 3652, 3718, 3716, 3651, 3653, 3719, 3717
1930, 3652, 3654, 3720, 3718, 3653, 3655, 3721, 3719
1931, 3654, 3656, 3722, 3720, 3655, 3657, 3723, 3721
1932, 3656, 3658, 3724, 3722, 3657, 3659, 3725, 3723
1933, 3658, 3660, 3726, 3724, 3659, 3661, 3727, 3725
1934, 3660, 3662, 3728, 3726, 3661, 3663, 3729, 3727
1935, 3662, 3664, 3730, 3728, 3663, 3665, 3731, 3729
1936, 3664, 3666, 3732, 3730, 3665, 3667, 3733, 3731
1937, 3666, 3668, 3734, 3732, 3667, 3669, 3735, 3733
1938, 3668, 3670, 3736, 3734, 3669, 3671, 3737, 3735
1939, 3670, 3672, 3738, 3736, 3671, 3673, 3739, 3737
1940, 3672, 3674, 3740, 3738, 3673, 3675, 3741, 3739
1941, 3674, 3676, 3742, 3740, 3675, 3677, 3743, 3741
1942, 3676, 3678, 3744, 3742, 3677, 3679, 3745, 3743
1943, 3678, 3680, 3746, 3744, 3679, 3681, 3747, 3745
1944, 3680, 3682, 3748, 3746, 3681, 3683, 3749, 3747
1945, 3682, 3684, 3750, 3748, 3683, 3685, 3751, 3749
1946, 3684, 3686, 3752, 3750, 3685, 3687, 3753, 3751
1947, 3686, 3688, 3754, 3752, 3687, 3689, 3755, 3753
1948, 3688, 3690, 3756, 3754, 3689, 3691, 3757, 3755
1949, 3690, 3692, 3758, 3756, 3691, 3693, 3759, 3757
1950, 3692, 3694, 3760, 3758, 3693, 3695, 3761, 3759
1951, 3694, 3696, 3762, 3760, 3695, 3697, 3763, 3761
1952, 3696, 3698, 3764, 3762, 3697, 3699, 3765, 3763
1953, 3700, 3702, 3768, 3766, 3701, 3703, 3769, 3767
1954, 3702, 3704, 3770, 3768, 3703, 3705, 3771, 3769
1955, 3704, 3706, 3772, 3770, 3705, 3707, 3773, 3771
1956, 3706, 3708, 3774, 3772, 3707, 3709, 3775, 3773
1957, 3708, 3710, 3776, 3774, 3709, 3711, 3777, 3775
1958, 3710, 3712, 3778, 3776, 3711, 3713, 3779, 3777
1959, 3712, 3714, 3780, 3778, 3713, 3715, 3781, 3779
1960, 3714, 3716, 3782, 3780, 3715, 3717, 3783, 3781
1961, 3716, 3718, 3784, 3782, 3717, 3719, 3785, 3783
1962, 3718, 3720, 3786, 3784, 3719, 3721, 3787, 3785
1963, 3720, 3722, 3788, 3786, 3721, 3723, 3789, 3787
1964, 3722, 3724, 3790, 3788, 3723, 3725, 3791, 3789
1965, 3724, 3726, 3792, 3790, 3725, 3727, 3793, 3791
1966, 3726, 3728, 3794, 3792, 3727, 3729, 3795, 3793
1967, 3728, 3730, 3796, 3794, 3729, 3731, 3797, 3795
1968, 3730, 3732, 3798, 3796, 3731, 3733, 3799, 3797
1969, 3732, 3734, 3800, 3798, 3733, 3735, 3801, 3799
1970, 3734, 3736, 3802, 3800, 3735, 3737, 3803, 3801
1971, 3736, 3738, 3804, 3802, 3737, 3739, 3805, 3803
1972, 3738, 3740, 3806, 3804, 3739, 3741, 3807, 3805
1973, 3740, 3742, 3808, 3806, 3741, 3743, 3809, 3807
1974, 3742, 3744, 3810, 3808, 3743, 3745, 3811, 3809
1975, 3744, 3746, 3812, 3810, 3745, 3747, 3813, 3811
1976, 3746, 3748, 3814, 3812, 3747, 3749, 3815, 3813
1977, 3748, 3750, 3816, 3814, 3749, 3751, 3817, 3815
1978, 3750, 3752, 3818, 3816, 3751, 3753, 3819, 3817
1979, 3752, 3754, 3820, 3818, 3753, 3755, 3821, 3819
1980, 3754, 3756, 3822, 3820, 3755, 3757, 3823, 3821
1981, 3756, 3758, 3824, 3822, 3757, 3759, 3825, 3823
1982, 3758, 3760, 3826, 3824, 3759, 3761, 3827, 3825
1983, 3760, 3762, 3828, 3826, 3761, 3763, 3829, 3827
1984, 3762, 3764, 3830, 3828, 3763, 3765, 3831, 3829
1985, 3766, 3768, 3834, 3832, 3767, 3769, 3835, 3833
1986, 3768, 3770, 3836, 3834, 3769, 3771, 3837, 3835
1987, 3770, 3772, 3838, 3836, 3771, 3773, 3839, 3837
1988, 3772, 3774, 3840, 3838, 3773, 3775, 3841, 3839
1989, 3774, 3776, 3842, 3840, 3775, 3777, 3843, 3841
1990, 3776, 3778, 3844, 3842, 3777, 3779, 3845, 3843
1991, 3778, 3780, 3846, 3844, 3779, 3781, 3847, 3845
1992, 3780, 3782, 3848, 3846, 3781, 3783, 3849, 3847
1993, 3782, 3784, 3850, 3848, 3783, 3785, 3851, 3849
1994, 3784, 3786, 3852, 3850, 3785, 3787, 3853, 3851
1995, 3786, 3788, 3854, 3852, 3787, 3789, 3855, 3853
1996, 3788, 3790, 3856, 3854, 3789, 3791, 3857, 3855
1997, 3790, 3792, 3858, 3856, 3791, 3793, 3859, 3857
1998, 3792, 3794, 3860, 3858, 3793, 3795, 3861, 3859
1999, 3794, 3796, 3862, 3860, 3795, 3797, 3863, 3861
2000, 3796, 3798, 3864, 3862, 3797, 3799, 3865, 3863
2001, 3798, 3800, 3866, 3864, 3799, 3801, 3867, 3865
2002, 3800, 3802, 3868, 3866, 3801, 3803, 3869, 3867
2003, 3802, 3804, 3870, 3868, 3803, 3805, 3871, 3869
2004, 3804, 3806, 3872, 3870, 3805, 3807, 3873, 3871
2005, 3806, 3808, 3874, 3872, 3807, 3809, 3875, 3873
2006, 3808, 3810, 3876, 3874, 3809, 3811, 3877, 3875
2007, 3810, 3812, 3878, 3876, 3811, 3813, 3879, 3877
2008, 3812, 3814, 3880, 3878, 3813, 3815, 3881, 3879
2009, 3814, 3816, 3882, 3880, 3815, 3817, 3883, 3881
2010, 3816, 3818, 3884, 3882, 3817, 3819, 3885, 3883
2011, 3818, 3820, 3886, 3884, 3819, 3821, 3887, 3885
2012, 3820, 3822, 3888, 3886, 3821, 3823, 3889, 3887
2013, 3822, 3824, 3890, 3888, 3823, 3825, 3891, 3889
2014, 3824, 3826, 3892, 3890, 3825, 3827, 3893, 3891
2015, 3826, 3828, 3894, 3892, 3827, 3829, 3895, 3893
2016, 3828, 3830, 3896, 3894, 3829, 3831, 3897, 3895
2017, 3832, 3834, 3900, 3898, 3833, 3835, 3901, 3899
2018, 3834, 3836, 3902, 3900, 3835, 3837, 3903, 3901
2019, 3836, 3838, 3904, 3902, 3837, 3839, 3905, 3903
2020, 3838, 3840, 3906, 3904, 3839, 3841, 3907, 3905
2021, 3840, 3842, 3908, 3906, 3841, 3843, 3909, 3907
2022, 3842, 3844, 3910, 3908, 3843, 3845, 3911, 3909
2023, 3844, 3846, 3912, 3910, 3845, 3847, 3913, 3911
2024, 3846, 3848, 3914, 3912, 3847, 3849, 3915, 3913
2025, 3848, 3850, 3916, 3914, 3849, 3851, 3917, 3915
2026, 3850, 3852, 3918, 3916, 3851, 3853, 3919, 3917
2027, 3852, 3854, 3920, 3918, 3853, 3855, 3921, 3919
2028, 3854, 3856, 3922, 3920, 3855, 3857, 3923, 3921
2029, 3856, 3858, 3924, 3922, 3857, 3859, 3925, 3923
2030, 3858, 3860, 3926, 3924, 3859, 3861, 3927, 3925
2031, 3860, 3862, 3928, 3926, 3861, 3863, 3929, 3927
2032, 3862, 3864, 3930, 3928, 3863, 3865, 3931, 3929
2033, 3864, 3866, 3932, 3930, 3865, 3867, 3933, 3931
2034, 3866, 3868, 3934, 3932, 3867, 3869, 3935, 3933
2035, 3868, 3870, 3936, 3934, 3869, 3871, 3937, 3935
2036, 3870, 3872, 3938, 3936, 3871, 3873, 3939, 3937
2037, 3872, 3874, 3940, 3938, 3873, 3875, 3941, 3939
2038, 3874, 3876, 3942, 3940, 3875, 3877, 3943, 3941
2039, 3876, 3878, 3944, 3942, 3877, 3879, 3945, 3943
2040, 3878, 3880, 3946, 3944, 3879, 3881, 3947, 3945
2041, 3880, 3882, 3948, 3946, 3881, 3883, 3949, 3947
2042, 3882, 3884, 3950, 3948, 3883, 3885, 3951, 3949
2043, 3884, 3886, 3952, 3950, 3885, 3887, 3953, 3951
2044, 3886, 3888, 3954, 3952, 3887, 3889, 3955, 3953
2045, 3888, 3890, 3956, 3954, 3889, 3891, 3957, 3955
2046, 3890, 3892, 3958, 3956, 3891, 3893, 3959, 3957
2047, 3892, 3894, 3960, 3958, 3893, 3895, 3961, 3959
2048, 3894, 3896, 3962, 3960, 3895, 3897, 3963, 3961
2049, 3898, 3900, 3966, 3964, 3899, 3901, 3967, 3965
2050, 3900, 3902, 3968, 3966, 3901, 3903, 3969, 3967
2051, 3902, 3904, 3970, 3968, 3903, 3905, 3971, 3969
2052, 3904, 3906, 3972, 3970, 3905, 3907, 3973, 3971
2053, 3906, 3908, 3974, 3972, 3907, 3909, 3975, 3973
2054, 3908, 3910, 3976, 3974, 3909, 3911, 3977, 3975
2055, 3910, 3912, 3978, 3976, 3911, 3913, 3979, 3977
2056, 3912, 3914, 3980, 3978, 3913, 3915, 3981, 3979
2057, 3914, 3916, 3982, 3980, 3915, 3917, 3983, 3981
2058, 3916, 3918, 3984, 3982, 3917, 3919, 3985, 3983
2059, 3918, 3920, 3986, 3984, 3919, 3921, 3987, 3985
2060, 3920, 3922, 3988, 3986, 3921, 3923, 3989, 3987
2061, 3922, 3924, 3990, 3988, 3923, 3925, 3991, 3989
2062, 3924, 3926, 3992, 3990, 3925, 3927, 3993, 3991
2063, 3926, 3928, 3994, 3992, 3927, 3929, 3995, 3993
2064, 3928, 3930, 3996, 3994, 3929, 3931, 3997, 3995
2065, 3930, 3932, 3998, 3996, 3931, 3933, 3999, 3997
2066, 3932, 3934, 4000, 3998, 3933, 3935, 4001, 3999
2067, 3934, 3936, 4002, 4000, 3935, 3937, 4003, 4001
2068, 3936, 3938, 4004, 4002, 3937, 3939, 4005, 4003
2069, 3938, 3940, 4006, 4004, 3939, 3941, 4007, 4005
2070, 3940, 3942, 4008, 4006, 3941, 3943, 4009, 4007
2071, 3942, 3944, 4010, 4008, 3943, 3945, 4011, 4009
2072, 3944, 3946, 4012, 4010, 3945, 3947, 4013, 4011
2073, 3946, 3948, 4014, 4012, 3947, 3949, 4015, 4013
2074, 3948, 3950, 4016, 4014, 3949, 3951, 4017, 4015
2075, 3950, 3952, 4018, 4016, 3951, 3953, 4019, 4017
2076, 3952, 3954, 4020, 4018, 3953, 3955, 4021, 4019
2077, 3954, 3956, 4022, 4020, 3955, 3957, 4023, 4021
2078, 3956, 3958, 4024, 4022, 3957, 3959, 4025, 4023
2079, 3958, 3960, 4026, 4024, 3959, 3961, 4027, 4025
2080, 3960, 3962, 4028, 4026, 3961, 3963, 4029, 4027
2081, 3964, 3966, 4032, 4030, 3965, 3967, 4033, 4031
2082, 3966, 3968, 4034, 4032, 3967, 3969, 4035, 4033
2083, 3968, 3970, 4036, 4034, 3969, 3971, 4037, 4035
2084, 3970, 3972, 4038, 4036, 3971, 3973, 4039, 4037
2085, 3972, 3974, 4040, 4038, 3973, 3975, 4041, 4039
2086, 3974, 3976, 4042, 4040, 3975, 3977, 4043, 4041
2087, 3976, 3978, 4044, 4042, 3977, 3979, 4045, 4043
2088, 3978, 3980, 4046, 4044, 3979, 3981, 4047, 4045
2089, 3980, 3982, 4048, 4046, 3981, 3983, 4049, 4047
2090, 3982, 3984, 4050, 4048, 3983, 3985, 4051, 4049
2091, 3984, 3986, 4052, 4050, 3985, 3987, 4053, 4051
2092, 3986, 3988, 4054, 4052, 3987, 3989, 4055, 4053
2093, 3988, 3990, 4056, 4054, 3989, 3991, 4057, 4055
2094, 3990, 3992, 4058, 4056, 3991, 3993, 4059, 4057
2095, 3992, 3994, 4060, 4058, 3993, 3995, 4061, 4059
2096, 3994, 3996, 4062, 4060, 3995, 3997, 4063, 4061
2097, 3996, 3998, 4064, 4062, 3997, 3999, 4065, 4063
2098, 3998, 4000, 4066, 4064, 3999, 4001, 4067, 4065
2099, 4000, 4002, 4068, 4066, 4001, 4003, 4069, 4067
2100, 4002, 4004, 4070, 4068, 4003, 4005, 4071, 4069
2101, 4004, 4006, 4072, 4070, 4005, 4007, 4073, 4071
2102, 4006, 4008, 4074, 4072, 4007, 4009, 4075, 4073
2103, 4008, 4010, 4076, 4074, 4009, 4011, 4077, 4075
2104, 4010, 4012, 4078, 4076, 4011, 4013, 4079, 4077
2105, 4012, 4014, 4080, 4078, 4013, 4015, 4081, 4079
2106, 4014, 4016, 4082, 4080, 4015, 4017, 4083, 4081
2107, 4016, 4018, 4084, 4082, 4017, 4019, 4085, 4083
2108, 4018, 4020, 4086, 4084, 4019, 4021, 4087, 4085
2109, 4020, 4022, 4088, 4086, 4021, 4023, 4089, 4087
2110, 4022, 4024, 4090, 4088, 4023, 4025, 4091, 4089
2111, 4024, 4026, 4092, 4090, 4025, 4027, 4093, 4091
2112, 4026, 4028, 4094, 4092, 4027, 4029, 4095, 4093
2113, 4030, 4032, 4098, 4096, 4031, 4033, 4099, 4097
2114, 4032, 4034, 4100, 4098, 4033, 4035, 4101, 4099
2115, 4034, 4036, 4102, 4100, 4035, 4037, 4103, 4101
2116, 4036, 4038, 4104, 4102, 4037, 4039, 4105, 4103
2117, 4038, 4040, 4106, 4104, 4039, 4041, 4107, 4105
2118, 4040, 4042, 4108, 4106, 4041, 4043, 4109, 4107
2119, 4042, 4044, 4110, 4108, 4043, 4045, 4111, 4109
2120, 4044, 4046, 4112, 4110, 4045, 4047, 4113, 4111
2121, 4046, 4048, 4114, 4112, 4047, 4049, 4115, 4113
2122, 4048, 4050, 4116, 4114, 4049, 4051, 4117, 4115
2123, 4050, 4052, 4118, 4116, 4051, 4053, 4119, 4117
2124, 4052, 4054, 4120, 4118, 4053, 4055, 4121, 4119
2125, 4054, 4056, 4122, 4120, 4055, 4057, 4123, 4121
2126, 4056, 4058, 4124, 4122, 4057, 4059, 4125, 4123
2127, 4058, 4060, 4126, 4124, 4059, 4061, 4127, 4125
2128, 4060, 4062, 4128, 4126, 4061, 4063, 4129, 4127
2129, 4062, 4064, 4130, 4128, 4063, 4065, 4131, 4129
2130, 4064, 4066, 4132, 4130, 4065, 4067, 4133, 4131
2131, 4066, 4068, 4134, 4132, 4067, 4069, 4135, 4133
2132, 4068, 4070, 4136, 4134, 4069, 4071, 4137, 4135
2133, 4070, 4072, 4138, 4136, 4071, 4073, 4139, 4137
2134, 4072, 4074, 4140, 4138, 4073, 4075, 4141, 4139
2135, 4074, 4076, 4142, 4140, 4075, 4077, 4143, 4141
2136, 4076, 4078, 4144, 4142, 4077, 4079, 4145, 4143
2137, 4078, 4080, 4146, 4144, 4079, 4081, 4147, 4145
2138, 4080, 4082, 4148, 4146, 4081, 4083, 4149, 4147
2139, 4082, 4084, 4150, 4148, 4083, 4085, 4151, 4149
2140, 4084, 4086, 4152, 4150, 4085, 4087, 4153, 4151
2141, 4086, 4088, 4154, 4152, 4087, 4089, 4155, 4153
2142, 4088, 4090, 4156, 4154, 4089, 4091, 4157, 4155
2143, 4090, 4092, 4158, 4156, 4091, 4093, 4159, 4157
2144, 4092, 4094, 4160, 4158, 4093, 4095, 4161, 4159
2145, 4096, 4098, 4164, 4162, 4097, 4099, 4165, 4163
2146, 4098, 4100, 4166, 4164, 4099, 4101, 4167, 4165
2147, 4100, 4102, 4168, 4166, 4101, 4103, 4169, 4167
2148, 4102, 4104, 4170, 4168, 4103, 4105, 4171, 4169
2149, 4104, 4106, 4172, 4170, 4105, 4107, 4173, 4171
2150, 4106, 4108, 4174, 4172, 4107, 4109, 4175, 4173
2151, 4108, 4110, 4176, 4174, 4109, 4111, 4177, 4175
2152, 4110, 4112, 4178, 4176, 4111, 4113, 4179, 4177
2153, 4112, 4114, 4180, 4178, 4113, 4115, 4181, 4179
2154, 4114, 4116, 4182, 4180, 4115, 4117, 4183, 4181
2155, 4116, 4118, 4184, 4182, 4117, 4119, 4185, 4183
2156, 4118, 4120, 4186, 4184, 4119, 4121, 4187, 4185
2157, 4120, 4122, 4188, 4186, 4121, 4123, 4189, 4187
2158, 4122, 4124, 4190, 4188, 4123, 4125, 4191, 4189
2159, 4124, 4126, 4192, 4190, 4125, 4127, 4193, 4191
2160, 4126, 4128, 4194, 4192, 4127, 4129, 4195, 4193
2161, 4128, 4130, 4196, 4194, 4129, 4131, 4197, 4195
2162, 4130, 4132, 4198, 4196, 4131, 4133, 4199, 4197
2163, 4132, 4134, 4200, 4198, 4133, 4135, 4201, 4199
2164, 4134, 4136, 4202, 4200, 4135, 4137, 4203, 4201
2165, 4136, 4138, 4204, 4202, 4137, 4139, 4205, 4203
2166, 4138, 4140, 4206, 4204, 4139, 4141, 4207, 4205
2167, 4140, 4142, 4208, 4206, 4141, 4143, 4209, 4207
2168, 4142, 4144, 4210, 4208, 4143, 4145, 4211, 4209
2169, 4144, 4146, 4212, 4210, 4145, 4147, 4213, 4211
2170, 4146, 4148, 4214, 4212, 4147, 4149, 4215, 4213
2171, 4148, 4150, 4216, 4214, 4149, 4151, 4217, 4215
2172, 4150, 4152, 4218, 4216, 4151, 4153, 4219, 4217
2173, 4152, 4154, 4220, 4218, 4153, 4155, 4221, 4219
2174, 4154, 4156, 4222, 4220, 4155, 4157, 4223, 4221
2175, 4156, 4158, 4224, 4222, 4157, 4159, 4225, 4223
2176, 4158, 4160, 4226, 4224, 4159, 4161, 4227, 4225
2177, 4162, 4164, 4230, 4228, 4163, 4165, 4231, 4229
2178, 4164, 4166, 4232, 4230, 4165, 4167, 4233, 4231
2179, 4166, 4168, 4234, 4232, 4167, 4169, 4235, 4233
2180, 4168, 4170, 4236, 4234, 4169, 4171, 4237, 4235
2181, 4170, 4172, 4238, 4236, 4171, 4173, 4239, 4237
2182, 4172, 4174, 4240, 4238, 4173, 4175, 4241, 4239
2183, 4174, 4176, 4242, 4240, 4175, 4177, 4243, 4241
2184, 4176, 4178, 4244, 4242, 4177, 4179, 4245, 4243
2185, 4178, 4180, 4246, 4244, 4179, 4181, 4247, 4245
2186, 4180, 4182, 4248, 4246, 4181, 4183, 4249, 4247
2187, 4182, 4184, 4250, 4248, 4183, 4185, 4251, 4249
2188, 4184, 4186, 4252, 4250, 4185, 4187, 4253, 4251
2189, 4186, 4188, 4254, 4252, 4187, 4189, 4255, 4253
2190, 4188, 4190, 4256, 4254, 4189, 4191, 4257, 4255
2191, 4190, 4192, 4258, 4256, 4191, 4193, 4259, 4257
2192, 4192, 4194, 4260, 4258, 4193, 4195, 4261, 4259
2193, 4194, 4196, 4262, 4260, 4195, 4197, 4263, 4261
2194, 4196, 4198, 4264, 4262, 4197, 4199, 4265, 4263
2195, 4198, 4200, 4266, 4264, 4199, 4201, 4267, 4265
2196, 4200, 4202, 4268, 4266, 4201, 4203, 4269, 4267
2197, 4202, 4204, 4270, 4268, 4203, 4205, 4271, 4269
2198, 4204, 4206, 4272, 4270, 4205, 4207, 4273, 4271
2199, 4206, 4208, 4274, 4272, 4207, 4209, 4275, 4273
2200, 4208, 4210, 4276, 4274, 4209, 4211, 4277, 4275
2201, 4210, 4212, 4278, 4276, 4211, 4213, 4279, 4277
2202, 4212, 4214, 4280, 4278, 4213, 4215, 4281, 4279
2203, 4214, 4216, 4282, 4280, 4215, 4217, 4283, 4281
2204, 4216, 4218, 4284, 4282, 4217, 4219, 4285, 4283
2205, 4218, 4220, 4286, 4284, 4219, 4221, 4287, 4285
2206, 4220, 4222, 4288, 4286, 4221, 4223, 4289, 4287
2207, 4222, 4224, 4290, 4288, 4223, 4225, 4291, 4289
2208, 4224, 4226, 4292, 4290, 4225, 4227, 4293, 4291
2209, 4228, 4230, 4296, 4294, 4229, 4231, 4297, 4295
2210, 4230, 4232, 4298, 4296, 4231, 4233, 4299, 4297
2211, 4232, 4234, 4300, 4298, 4233, 4235, 4301, 4299
2212, 4234, 4236, 4302, 4300, 4235, 4237, 4303, 4301
2213, 4236, 4238, 4304, 4302, 4237, 4239, 4305, 4303
2214, 4238, 4240, 4306, 4304, 4239, 4241, 4307, 4305
2215, 4240, 4242, 4308, 4306, 4241, 4243, 4309, 4307
2216, 4242, 4244, 4310, 4308, 4243, 4245, 4311, 4309
2217, 4244, 4246, 4312, 4310, 4245, 4247, 4313, 4311
2218, 4246, 4248, 4314, 4312, 4247, 4249, 4315, 4313
2219, 4248, 4250, 4316, 4314, 4249, 4251, 4317, 4315
2220, 4250, 4252, 4318, 4316, 4251, 4253, 4319, 4317
2221, 4252, 4254, 4320, 4318, 4253, 4255, 4321, 4319
2222, 4254, 4256, 4322, 4320, 4255, 4257, 4323, 4321
2223, 4256, 4258, 4324, 4322, 4257, 4259, 4325, 4323
2224, 4258, 4260, 4326, 4324, 4259, 4261, 4327, 4325
2225, 4260, 4262, 4328, 4326, 4261, 4263, 4329, 4327
2226, 4262, 4264, 4330, 4328, 4263, 4265, 4331, 4329
2227, 4264, 4266, 4332, 4330, 4265, 4267, 4333, 4331
2228, 4266, 4268, 4334, 4332, 4267, 4269, 4335, 4333
2229, 4268, 4270, 4336, 4334, 4269, 4271, 4337, 4335
2230, 4270, 4272, 4338, 4336, 4271, 4273, 4339, 4337
2231, 4272, 4274, 4340, 4338, 4273, 4275, 4341, 4339
2232, 4274, 4276, 4342, 4340, 4275, 4277, 4343, 4341
2233, 4276, 4278, 4344, 4342, 4277, 4279, 4345, 4343
2234, 4278, 4280, 4346, 4344, 4279, 4281, 4347, 4345
2235, 4280, 4282, 4348, 4346, 4281, 4283, 4349, 4347
2236, 4282, 4284, 4350, 4348, 4283, 4285, 4351, 4349
2237, 4284, 4286, 4352, 4350, 4285, 4287, 4353, 4351
2238, 4286, 4288, 4354, 4352, 4287, 4289, 4355, 4353
2239, 4288, 4290, 4356, 4354, 4289, 4291, 4357, 4355
2240, 4290, 4292, 4358, 4356, 4291, 4293, 4359, 4357
2241, 4294, 4296, 4362, 4360, 4295, 4297, 4363, 4361
2242, 4296, 4298, 4364, 4362, 4297, 4299, 4365, 4363
2243, 4298, 4300, 4366, 4364, 4299, 4301, 4367, 4365
2244, 4300, 4302, 4368, 4366, 4301, 4303, 4369, 4367
2245, 4302, 4304, 4370, 4368, 4303, 4305, 4371, 4369
2246, 4304, 4306, 4372, 4370, 4305, 4307, 4373, 4371
2247, 4306, 4308, 4374, 4372, 4307, 4309, 4375, 4373
2248, 4308, 4310, 4376, 4374, 4309, 4311, 4377, 4375
2249, 4310, 4312, 4378, 4376, 4311, 4313, 4379, 4377
2250, 4312, 4314, 4380, 4378, 4313, 4315, 4381, 4379
2251, 4314, 4316, 4382, 4380, 4315, 4317, 4383, 4381
2252, 4316, 4318, 4384, 4382, 4317, 4319, 4385, 4383
2253, 4318, 4320, 4386, 4384, 4319, 4321, 4387, 4385
2254, 4320, 4322, 4388, 4386, 4321, 4323, 4389, 4387
2255, 4322, 4324, 4390, 4388, 4323, 4325, 4391, 4389
2256, 4324, 4326, 4392, 4390, 4325, 4327, 4393, 4391
2257, 4326, 4328, 4394, 4392, 4327, 4329, 4395, 4393
2258, 4328, 4330, 4396, 4394, 4329, 4331, 4397, 4395
2259, 4330, 4332, 4398, 4396, 4331, 4333, 4399, 4397
2260, 4332, 4334, 4400, 4398, 4333, 4335, 4401, 4399
2261, 4334, 4336, 4402, 4400, 4335, 4337, 4403, 4401
2262, 4336, 4338, 4404, 4402, 4337, 4339, 4405, 4403
2263, 4338, 4340, 4406, 4404, 4339, 4341, 4407, 4405
2264, 4340, 4342, 4408, 4406, 4341, 4343, 4409, 4407
2265, 4342, 4344, 4410, 4408, 4343, 4345, 4411, 4409
2266, 4344, 4346, 4412, 4410, 4345, 4347, 4413, 4411
2267, 4346, 4348, 4414, 4412, 4347, 4349, 4415, 4413
2268, 4348, 4350, 4416, 4414, 4349, 4351, 4417, 4415
2269, 4350, 4352, 4418, 4416, 4351, 4353, 4419, 4417
2270, 4352, 4354, 4420, 4418, 4353, 4355, 4421, 4419
2271, 4354, 4356, 4422, 4420, 4355, 4357, 4423, 4421
2272, 4356, 4358, 4424, 4422, 4357, 4359, 4425, 4423
2273, 4360, 4362, 4428, 4426, 4361, 4363, 4429, 4427
2274, 4362, 4364, 4430, 4428, 4363, 4365, 4431, 4429
2275, 4364, 4366, 4432, 4430, 4365, 4367, 4433, 4431
2276, 4366, 4368, 4434, 4432, 4367, 4369, 4435, 4433
2277, 4368, 4370, 4436, 4434, 4369, 4371, 4437, 4435
2278, 4370, 4372, 4438, 4436, 4371, 4373, 4439, 4437
2279, 4372, 4374, 4440, 4438, 4373, 4375, 4441, 4439
2280, 4374, 4376, 4442, 4440, 4375, 4377, 4443, 4441
2281, 4376, 4378, 4444, 4442, 4377, 4379, 4445, 4443
2282, 4378, 4380, 4446, 4444, 4379, 4381, 4447, 4445
2283, 4380, 4382, 4448, 4446, 4381, 4383, 4449, 4447
2284, 4382, 4384, 4450, 4448, 4383, 4385, 4451, 4449
2285, 4384, 4386, 4452, 4450, 4385, 4387, 4453, 4451
2286, 4386, 4388, 4454, 4452, 4387, 4389, 4455, 4453
2287, 4388, 4390, 4456, 4454, 4389, 4391, 4457, 4455
2288, 4390, 4392, 4458, 4456, 4391, 4393, 4459, 4457
2289, 4392, 4394, 4460, 4458, 4393, 4395, 4461, 4459
2290, 4394, 4396, 4462, 4460, 4395, 4397, 4463, 4461
2291, 4396, 4398, 4464, 4462, 4397, 4399, 4465, 4463
2292, 4398, 4400, 4466, 4464, 4399, 4401, 4467, 4465
2293, 4400, 4402, 4468, 4466, 4401, 4403, 4469, 4467
2294, 4402, 4404, 4470, 4468, 4403, 4405, 4471, 4469
2295, 4404, 4406, 4472, 4470, 4405, 4407, 4473, 4471
2296, 4406, 4408, 4474, 4472, 4407, 4409, 4475, 4473
2297, 4408, 4410, 4476, 4474, 4409, 4411, 4477, 4475
2298, 4410, 4412, 4478, 4476, 4411, 4413, 4479, 4477
2299, 4412, 4414, 4480, 4478, 4413, 4415, 4481, 4479
2300, 4414, 4416, 4482, 4480, 4415, 4417, 4483, 4481
2301, 4416, 4418, 4484, 4482, 4417, 4419, 4485, 4483
2302, 4418, 4420, 4486, 4484, 4419, 4421, 4487, 4485
2303, 4420, 4422, 4488, 4486, 4421, 4423, 4489, 4487
2304, 4422, 4424, 4490, 4488, 4423, 4425, 4491, 4489
2305, 4426, 4428, 4494, 4492, 4427, 4429, 4495, 4493
2306, 4428, 4430, 4496, 4494, 4429, 4431, 4497, 4495
2307, 4430, 4432, 4498, 4496, 4431, 4433, 4499, 4497
2308, 4432, 4434, 4500, 4498, 4433, 4435, 4501, 4499
2309, 4434, 4436, 4502, 4500, 4435, 4437, 4503, 4501
2310, 4436, 4438, 4504, 4502, 4437, 4439, 4505, 4503
2311, 4438, 4440, 4506, 4504, 4439, 4441, 4507, 4505
2312, 4440, 4442, 4508, 4506, 4441, 4443, 4509, 4507
2313, 4442, 4444, 4510, 4508, 4443, 4445, 4511, 4509
2314, 4444, 4446, 4512, 4510, 4445, 4447, 4513, 4511
2315, 4446, 4448, 4514, 4512, 4447, 4449, 4515, 4513
2316, 4448, 4450, 4516, 4514, 4449, 4451, 4517, 4515
2317, 4450, 4452, 4518, 4516, 4451, 4453, 4519, 4517
2318, 4452, 4454, 4520, 4518, 4453, 4455, 4521, 4519
2319, 4454, 4456, 4522, 4520, 4455, 4457, 4523, 4521
2320, 4456, 4458, 4524, 4522, 4457, 4459, 4525, 4523
2321, 4458, 4460, 4526, 4524, 4459, 4461, 4527, 4525
2322, 4460, 4462, 4528, 4526, 4461, 4463, 4529, 4527
2323, 4462, 4464, 4530, 4528, 4463, 4465, 4531, 4529
2324, 4464, 4466, 4532, 4530, 4465, 4467, 4533, 4531
2325, 4466, 4468, 4534, 4532, 4467, 4469, 4535, 4533
2326, 4468, 4470, 4536, 4534, 4469, 4471, 4537, 4535
2327, 4470, 4472, 4538, 4536, 4471, 4473, 4539, 4537
2328, 4472, 4474, 4540, 4538, 4473, 4475, 4541, 4539
2329, 4474, 4476, 4542, 4540, 4475, 4477, 4543, 4541
2330, 4476, 4478, 4544, 4542, 4477, 4479, 4545, 4543
2331, 4478, 4480, 4546, 4544, 4479, 4481, 4547, 4545
2332, 4480, 4482, 4548, 4546, 4481, 4483, 4549, 4547
2333, 4482, 4484, 4550, 4548, 4483, 4485, 4551, 4549
2334, 4484, 4486, 4552, 4550, 4485, 4487, 4553, 4551
2335, 4486, 4488, 4554, 4552, 4487, 4489, 4555, 4553
2336, 4488, 4490, 4556, 4554, 4489, 4491, 4557, 4555
2337, 1325, 1327, 4559, 3503, 1324, 1326, 4558, 3502
2338, 1327, 1329, 4561, 4559, 1326, 1328, 4560, 4558
2339, 1329, 1331, 4563, 4561, 1328, 1330, 4562, 4560
2340, 1331, 1333, 4565, 4563, 1330, 1332, 4564, 4562
2341, 1333, 1335, 4567, 4565, 1332, 1334, 4566, 4564
2342, 1335, 1337, 4569, 4567, 1334, 1336, 4568, 4566
2343, 1337, 1339, 4571, 4569, 1336, 1338, 4570, 4568
2344, 1339, 1341, 4573, 4571, 1338, 1340, 4572, 4570
2345, 1341, 1343, 4575, 4573, 1340, 1342, 4574, 4572
2346, 1343, 1345, 4577, 4575, 1342, 1344, 4576, 4574
2347, 1345, 1347, 4579, 4577, 1344, 1346, 4578, 4576
2348, 1347, 1349, 4581, 4579, 1346, 1348, 4580, 4578
2349, 1349, 1351, 4583, 4581, 1348, 1350, 4582, 4580
2350, 1351, 1353, 4585, 4583, 1350, 1352, 4584, 4582
2351, 1353, 1355, 4587, 4585, 1352, 1354, 4586, 4584
2352, 1355, 1357, 4589, 4587, 1354, 1356, 4588, 4586
2353, 1357, 1359, 4591, 4589, 1356, 1358, 4590, 4588
2354, 1359, 1361, 4593, 4591, 1358, 1360, 4592, 4590
2355, 1361, 1363, 4595, 4593, 1360, 1362, 4594, 4592
2356, 1363, 1365, 4597, 4595, 1362, 1364, 4596, 4594
2357, 1365, 1367, 4599, 4597, 1364, 1366, 4598, 4596
2358, 1367, 1369, 4601, 4599, 1366, 1368, 4600, 4598
2359, 1369, 1371, 4603, 4601, 1368, 1370, 4602, 4600
2360, 1371, 1373, 4605, 4603, 1370, 1372, 4604, 4602
2361, 1373, 1375, 4607, 4605, 1372, 1374, 4606, 4604
2362, 1375, 1377, 4609, 4607, 1374, 1376, 4608, 4606
2363, 1377, 1379, 4611, 4609, 1376, 1378, 4610, 4608
2364, 1379, 1381, 4613, 4611, 1378, 1380, 4612, 4610
2365, 1381, 1383, 4615, 4613, 1380, 1382, 4614, 4612
2366, 1383, 1385, 4617, 4615, 1382, 1384, 4616, 4614
2367, 1385, 1387, 4619, 4617, 1384, 1386, 4618, 4616
2368, 1387, 1389, 4621, 4619, 1386, 1388, 4620, 4618
2369, 3503, 4559, 4623, 3569, 3502, 4558, 4622, 3568
2370, 4559, 4561, 4625, 4623, 4558, 4560, 4624, 4622
2371, 4561, 4563, 4627, 4625, 4560, 4562, 4626, 4624
2372, 4563, 4565, 4629, 4627, 4562, 4564, 4628, 4626
2373, 4565, 4567, 4631, 4629, 4564, 4566, 4630, 4628
2374, 4567, 4569, 4633, 4631, 4566, 4568, 4632, 4630
2375, 4569, 4571, 4635, 4633, 4568, 4570, 4634, 4632
2376, 4571, 4573, 4637, 4635, 4570, 4572, 4636, 4634
2377, 4573, 4575, 4639, 4637, 4572, 4574, 4638, 4636
2378, 4575, 4577, 4641, 4639, 4574, 4576, 4640, 4638
2379, 4577, 4579, 4643, 4641, 4576, 4578, 4642, 4640
2380, 4579, 4581, 4645, 4643, 4578, 4580, 4644, 4642
2381, 4581, 4583, 4647, 4645, 4580, 4582, 4646, 4644
2382, 4583, 4585, 4649, 4647, 4582, 4584, 4648, 4646
2383, 4585, 4587, 4651, 4649, 4584, 4586, 4650, 4648
2384, 4587, 4589, 4653, 4651, 4586, 4588, 4652, 4650
2385, 4589, 4591, 4655, 4653, 4588, 4590, 4654, 4652
2386, 4591, 4593, 4657, 4655, 4590, 4592, 4656, 4654
2387, 4593, 4595, 4659, 4657, 4592, 4594, 4658, 4656
2388, 4595, 4597, 4661, 4659, 4594, 4596, 4660, 4658
2389, 4597, 4599, 4663, 4661, 4596, 4598, 4662, 4660
2390, 4599, 4601, 4665, 4663, 4598, 4600, 4664, 4662
2391, 4601, 4603, 4667, 4665, 4600, 4602, 4666, 4664
2392, 4603, 4605, 4669, 4667, 4602, 4604, 4668, 4666
2393, 4605, 4607, 4671, 4669, 4604, 4606, 4670, 4668
2394, 4607, 4609, 4673, 4671, 4606, 4608, 4672, 4670
2395, 4609, 4611, 4675, 4673, 4608, 4610, 4674, 4672
2396, 4611, 4613, 4677, 4675, 4610, 4612, 4676, 4674
2397, 4613, 4615, 4679, 4677, 4612, 4614, 4678, 4676
2398, 4615, 4617, 4681, 4679, 4614, 4616, 4680, 4678
2399, 4617, 4619, 4683, 4681, 4616, 4618, 4682, 4680
2400, 4619, 4621, 4685, 4683, 4618, 4620, 4684, 4682
2401, 3569, 4623, 4687, 3635, 3568, 4622, 4686, 3634
2402, 4623, 4625, 4689, 4687, 4622, 4624, 4688, 4686
2403, 4625, 4627, 4691, 4689, 4624, 4626, 4690, 4688
2404, 4627, 4629, 4693, 4691, 4626, 4628, 4692, 4690
2405, 4629, 4631, 4695, 4693, 4628, 4630, 4694, 4692
2406, 4631, 4633, 4697, 4695, 4630, 4632, 4696, 4694
2407, 4633, 4635, 4699, 4697, 4632, 4634, 4698, 4696
2408, 4635, 4637, 4701, 4699, 4634, 4636, 4700, 4698
2409, 4637, 4639, 4703, 4701, 4636, 4638, 4702, 4700
2410, 4639, 4641, 4705, 4703, 4638, 4640, 4704, 4702
2411, 4641, 4643, 4707, 4705, 4640, 4642, 4706, 4704
2412, 4643, 4645, 4709, 4707, 4642, 4644, 4708, 4706
2413, 4645, 4647, 4711, 4709, 4644, 4646, 4710, 4708
2414, 4647, 4649, 4713, 4711, 4646, 4648, 4712, 4710
2415, 4649, 4651, 4715, 4713, 4648, 4650, 4714, 4712
2416, 4651, 4653, 4717, 4715, 4650, 4652, 4716, 4714
2417, 4653, 4655, 4719, 4717, 4652, 4654, 4718, 4716
2418, 4655, 4657, 4721, 4719, 4654, 4656, 4720, 4718
2419, 4657, 4659, 4723, 4721, 4656, 4658, 4722, 4720
2420, 4659, 4661, 4725, 4723, 4658, 4660, 4724, 4722
2421, 4661, 4663, 4727, 4725, 4660, 4662, 4726, 4724
2422, 4663, 4665, 4729, 4727, 4662, 4664, 4728, 4726
2423, 4665, 4667, 4731, 4729, 4664, 4666, 4730, 4728
2424, 4667, 4669, 4733, 4731, 4666, 4668, 4732, 4730
2425, 4669, 4671, 4735, 4733, 4668, 4670, 4734, 4732
2426, 4671, 4673, 4737, 4735, 4670, 4672, 4736, 4734
2427, 4673, 4675, 4739, 4737, 4672, 4674, 4738, 4736
2428, 4675, 4677, 4741, 4739, 4674, 4676, 4740, 4738
2429, 4677, 4679, 4743, 4741, 4676, 4678, 4742, 4740
2430, 4679, 4681, 4745, 4743, 4678, 4680, 4744, 4742
2431, 4681, 4683, 4747, 4745, 4680, 4682, 4746, 4744
2432, 4683, 4685, 4749, 4747, 4682, 4684, 4748, 4746
2433, 3635, 4687, 4751, 3701, 3634, 4686, 4750, 3700
2434, 4687, 4689, 4753, 4751, 4686, 4688, 4752, 4750
2435, 4689, 4691, 4755, 4753, 4688, 4690, 4754, 4752
2436, 4691, 4693, 4757, 4755, 4690, 4692, 4756, 4754
2437, 4693, 4695, 4759, 4757, 4692, 4694, 4758, 4756
2438, 4695, 4697, 4761, 4759, 4694, 4696, 4760, 4758
2439, 4697, 4699, 4763, 4761, 4696, 4698, 4762, 4760
2440, 4699, 4701, 4765, 4763, 4698, 4700, 4764, 4762
2441, 4701, 4703, 4767, 4765, 4700, 4702, 4766, 4764
2442, 4703, 4705, 4769, 4767, 4702, 4704, 4768, 4766
2443, 4705, 4707, 4771, 4769, 4704, 4706, 4770, 4768
2444, 4707, 4709, 4773, 4771, 4706, 4708, 4772, 4770
2445, 4709, 4711, 4775, 4773, 4708, 4710, 4774, 4772
2446, 4711, 4713, 4777, 4775, 4710, 4712, 4776, 4774
2447, 4713, 4715, 4779, 4777, 4712, 4714, 4778, 4776
2448, 4715, 4717, 4781, 4779, 4714, 4716, 4780, 4778
2449, 4717, 4719, 4783, 4781, 4716, 4718, 4782, 4780
2450, 4719, 4721, 4785, 4783, 4718, 4720, 4784, 4782
2451, 4721, 4723, 4787, 4785, 4720, 4722, 4786, 4784
2452, 4723, 4725, 4789, 4787, 4722, 4724, 4788, 4786
2453, 4725, 4727, 4791, 4789, 4724, 4726, 4790, 4788
2454, 4727, 4729, 4793, 4791, 4726, 4728, 4792, 4790
2455, 4729, 4731, 4795, 4793, 4728, 4730, 4794, 4792
2456, 4731, 4733, 4797, 4795, 4730, 4732, 4796, 4794
2457, 4733, 4735, 4799, 4797, 4732, 4734, 4798, 4796
2458, 4735, 4737, 4801, 4799, 4734, 4736, 4800, 4798
2459, 4737, 4739, 4803, 4801, 4736, 4738, 4802, 4800
2460, 4739, 4741, 4805, 4803, 4738, 4740, 4804, 4802
2461, 4741, 4743, 4807, 4805, 4740, 4742, 4806, 4804
2462, 4743, 4745, 4809, 4807, 4742, 4744, 4808, 4806
2463, 4745, 4747, 4811, 4809, 4744, 4746, 4810, 4808
2464, 4747, 4749, 4813, 4811, 4746, 4748, 4812, 4810
2465, 3701, 4751, 4815, 3767, 3700, 4750, 4814, 3766
2466, 4751, 4753, 4817, 4815, 4750, 4752, 4816, 4814
2467, 4753, 4755, 4819, 4817, 4752, 4754, 4818, 4816
2468, 4755, 4757, 4821, 4819, 4754, 4756, 4820, 4818
2469, 4757, 4759, 4823, 4821, 4756, 4758, 4822, 4820
2470, 4759, 4761, 4825, 4823, 4758, 4760, 4824, 4822
2471, 4761, 4763, 4827, 4825, 4760, 4762, 4826, 4824
2472, 4763, 4765, 4829, 4827, 4762, 4764, 4828, 4826
2473, 4765, 4767, 4831, 4829, 4764, 4766, 4830, 4828
2474, 4767, 4769, 4833, 4831, 4766, 4768, 4832, 4830
2475, 4769, 4771, 4835, 4833, 4768, 4770, 4834, 4832
2476, 4771, 4773, 4837, 4835, 4770, 4772, 4836, 4834
2477, 4773, 4775, 4839, 4837, 4772, 4774, 4838, 4836
2478, 4775, 4777, 4841, 4839, 4774, 4776, 4840, 4838
2479, 4777, 4779, 4843, 4841, 4776, 4778, 4842, 4840
2480, 4779, 4781, 4845, 4843, 4778, 4780, 4844, 4842
2481, 4781, 4783, 4847, 4845, 4780, 4782, 4846, 4844
2482, 4783, 4785, 4849, 4847, 4782, 4784, 4848, 4846
2483, 4785, 4787, 4851, 4849, 4784, 4786, 4850, 4848
2484, 4787, 4789, 4853, 4851, 4786, 4788, 4852, 4850
2485, 4789, 4791, 4855, 4853, 4788, 4790, 4854, 4852
2486, 4791, 4793, 4857, 4855, 4790, 4792, 4856, 4854
2487, 4793, 4795, 4859, 4857, 4792, 4794, 4858, 4856
2488, 4795, 4797, 4861, 4859, 4794, 4796, 4860, 4858
2489, 4797, 4799, 4863, 4861, 4796, 4798, 4862, 4860
2490, 4799, 4801, 4865, 4863, 4798, 4800, 4864, 4862
2491, 4801, 4803, 4867, 4865, 4800, 4802, 4866, 4864
2492, 4803, 4805, 4869, 4867, 4802, 4804, 4868, 4866
2493, 4805, 4807, 4871, 4869, 4804, 4806, 4870, 4868
2494, 4807, 4809, 4873, 4871, 4806, 4808, 4872, 4870
2495, 4809, 4811, 4875, 4873, 4808, 4810, 4874, 4872
2496, 4811, 4813, 4877, 4875, 4810, 4812, 4876, 4874
2497, 3767, 4815, 4879, 3833, 3766, 4814, 4878, 3832
2498, 4815, 4817, 4881, 4879, 4814, 4816, 4880, 4878
2499, 4817, 4819, 4883, 4881, 4816, 4818, 4882, 4880
2500, 4819, 4821, 4885, 4883, 4818, 4820, 4884, 4882
2501, 4821, 4823, 4887, 4885, 4820, 4822, 4886, 4884
2502, 4823, 4825, 4889, 4887, 4822, 4824, 4888, 4886
2503, 4825, 4827, 4891, 4889, 4824, 4826, 4890, 4888
2504, 4827, 4829, 4893, 4891, 4826, 4828, 4892, 4890
2505, 4829, 4831, 4895, 4893, 4828, 4830, 4894, 4892
2506, 4831, 4833, 4897, 4895, 4830, 4832, 4896, 4894
2507, 4833, 4835, 4899, 4897, 4832, 4834, 4898, 4896
2508, 4835, 4837, 4901, 4899, 4834, 4836, 4900, 4898
2509, 4837, 4839, 4903, 4901, 4836, 4838, 4902, 4900
2510, 4839, 4841, 4905, 4903, 4838, 4840, 4904, 4902
2511, 4841, 4843, 4907, 4905, 4840, 4842, 4906, 4904
2512, 4843, 4845, 4909, 4907, 4842, 4844, 4908, 4906
2513, 4845, 4847, 4911, 4909, 4844, 4846, 4910, 4908
2514, 4847, 4849, 4913, 4911, 4846, 4848, 4912, 4910
2515, 4849, 4851, 4915, 4913, 4848, 4850, 4914, 4912
2516, 4851, 4853, 4917, 4915, 4850, 4852, 4916, 4914
2517, 4853, 4855, 4919, 4917, 4852, 4854, 4918, 4916
2518, 4855, 4857, 4921, 4919, 4854, 4856, 4920, 4918
2519, 4857, 4859, 4923, 4921, 4856, 4858, 4922, 4920
2520, 4859, 4861, 4925, 4923, 4858, 4860, 4924, 4922
2521, 4861, 4863, 4927, 4925, 4860, 4862, 4926, 4924
2522, 4863, 4865, 4929, 4927, 4862, 4864, 4928, 4926
2523, 4865, 4867, 4931, 4929, 4864, 4866, 4930, 4928
2524, 4867, 4869, 4933, 4931, 4866, 4868, 4932, 4930
2525, 4869, 4871, 4935, 4933, 4868, 4870, 4934, 4932
2526, 4871, 4873, 4937, 4935, 4870, 4872, 4936, 4934
2527, 4873, 4875, 4939, 4937, 4872, 4874, 4938, 4936
2528, 4875, 4877, 4941, 4939, 4874, 4876, 4940, 4938
2529, 3833, 4879, 4943, 3899, 3832, 4878, 4942, 3898
2530, 4879, 4881, 4945, 4943, 4878, 4880, 4944, 4942
2531, 4881, 4883, 4947, 4945, 4880, 4882, 4946, 4944
2532, 4883, 4885, 4949, 4947, 4882, 4884, 4948, 4946
2533, 4885, 4887, 4951, 4949, 4884, 4886, 4950, 4948
2534, 4887, 4889, 4953, 4951, 4886, 4888, 4952, 4950
2535, 4889, 4891, 4955, 4953, 4888, 4890, 4954, 4952
2536, 4891, 4893, 4957, 4955, 4890, 4892, 4956, 4954
2537, 4893, 4895, 4959, 4957, 4892, 4894, 4958, 4956
2538, 4895, 4897, 4961, 4959, 4894, 4896, 4960, 4958
2539, 4897, 4899, 4963, 4961, 4896, 4898, 4962, 4960
2540, 4899, 4901, 4965, 4963, 4898, 4900, 4964, 4962
2541, 4901, 4903, 4967, 4965, 4900, 4902, 4966, 4964
2542, 4903, 4905, 4969, 4967, 4902, 4904, 4968, 4966
2543, 4905, 4907, 4971, 4969, 4904, 4906, 4970, 4968
2544, 4907, 4909, 4973, 4971, 4906, 4908, 4972, 4970
2545, 4909, 4911, 4975, 4973, 4908, 4910, 4974, 4972
2546, 4911, 4913, 4977, 4975, 4910, 4912, 4976, 4974
2547, 4913, 4915, 4979, 4977, 4912, 4914, 4978, 4976
2548, 4915, 4917, 4981, 4979, 4914, 4916, 4980, 4978
2549, 4917, 4919, 4983, 4981, 4916, 4918, 4982, 4980
2550, 4919, 4921, 4985, 4983, 4918, 4920, 4984, 4982
2551, 4921, 4923, 4987, 4985, 4920, 4922, 4986, 4984
2552, 4923, 4925, 4989, 4987, 4922, 4924, 4988, 4986
2553, 4925, 4927, 4991, 4989, 4924, 4926, 4990, 4988
2554, 4927, 4929, 4993, 4991, 4926, 4928, 4992, 4990
2555, 4929, 4931, 4995, 4993, 4928, 4930, 4994, 4992
2556, 4931, 4933, 4997, 4995, 4930, 4932, 4996, 4994
2557, 4933, 4935, 4999, 4997, 4932, 4934, 4998, 4996
2558, 4935, 4937, 5001, 4999, 4934, 4936, 5000, 4998
2559, 4937, 4939, 5003, 5001, 4936, 4938, 5002, 5000
2560, 4939, 4941, 5005, 5003, 4938, 4940, 5004, 5002
2561, 3899, 4943, 5007, 3965, 3898, 4942, 5006, 3964
2562, 4943, 4945, 5009, 5007, 4942, 4944, 5008, 5006
2563, 4945, 4947, 5011, 5009, 4944, 4946, 5010, 5008
2564, 4947, 4949, 5013, 5011, 4946, 4948, 5012, 5010
2565, 4949, 4951, 5015, 5013, 4948, 4950, 5014, 5012
2566, 4951, 4953, 5017, 5015, 4950, 4952, 5016, 5014
2567, 4953, 4955, 5019, 5017, 4952, 4954, 5018, 5016
2568, 4955, 4957, 5021, 5019, 4954, 4956, 5020, 5018
2569, 4957, 4959, 5023, 5021, 4956, 4958, 5022, 5020
2570, 4959, 4961, 5025, 5023, 4958, 4960, 5024, 5022
2571, 4961, 4963, 5027, 5025, 4960, 4962, 5026, 5024
2572, 4963, 4965, 5029, 5027, 4962, 4964, 5028, 5026
2573, 4965, 4967, 5031, 5029, 4964, 4966, 5030, 5028
2574, 4967, 4969, 5033, 5031, 4966, 4968, 5032, 5030
2575, 4969, 4971, 5035, 5033, 4968, 4970, 5034, 5032
2576, 4971, 4973, 5037, 5035, 4970, 4972, 5036, 5034
2577, 4973, 4975, 5039, 5037, 4972, 4974, 5038, 5036
2578, 4975, 4977, 5041, 5039, 4974, 4976, 5040, 5038
2579, 4977, 4979, 5043, 5041, 4976, 4978, 5042, 5040
2580, 4979, 4981, 5045, 5043, 4978, 4980, 5044, 5042
2581, 4981, 4983, 5047, 5045, 4980, 4982, 5046, 5044
2582, 4983, 4985, 5049, 5047, 4982, 4984, 5048, 5046
2583, 4985, 4987, 5051, 5049, 4984, 4986, 5050, 5048
2584, 4987, 4989, 5053, 5051, 4986, 4988, 5052, 5050
2585, 4989, 4991, 5055, 5053, 4988, 4990, 5054, 5052
2586, 4991, 4993, 5057, 5055, 4990, 4992, 5056, 5054
2587, 4993, 4995, 5059, 5057, 4992, 4994, 5058, 5056
2588, 4995, 4997, 5061, 5059, 4994, 4996, 5060, 5058
2589, 4997, 4999, 5063, 5061, 4996, 4998, 5062, 5060
2590, 4999, 5001, 5065, 5063, 4998, 5000, 5064, 5062
2591, 5001, 5003, 5067, 5065, 5000, 5002, 5066, 5064
2592, 5003, 5005, 5069, 5067, 5002, 5004, 5068, 5066
2593, 3965, 5007, 5071, 4031, 3964, 5006, 5070, 4030
2594, 5007, 5009, 5073, 5071, 5006, 5008, 5072, 5070
2595, 5009, 5011, 5075, 5073, 5008, 5010, 5074, 5072
2596, 5011, 5013, 5077, 5075, 5010, 5012, 5076, 5074
2597, 5013, 5015, 5079, 5077, 5012, 5014, 5078, 5076
2598, 5015, 5017, 5081, 5079, 5014, 5016, 5080, 5078
2599, 5017, 5019, 5083, 5081, 5016, 5018, 5082, 5080
2600, 5019, 5021, 5085, 5083, 5018, 5020, 5084, 5082
2601, 5021, 5023, 5087, 5085, 5020, 5022, 5086, 5084
2602, 5023, 5025, 5089, 5087, 5022, 5024, 5088, 5086
2603, 5025, 5027, 5091, 5089, 5024, 5026, 5090, 5088
2604, 5027, 5029, 5093, 5091, 5026, 5028, 5092, 5090
2605, 5029, 5031, 5095, 5093, 5028, 5030, 5094, 5092
2606, 5031, 5033, 5097, 5095, 5030, 5032, 5096, 5094
2607, 5033, 5035, 5099, 5097, 5032, 5034, 5098, 5096
2608, 5035, 5037, 5101, 5099, 5034, 5036, 5100, 5098
2609, 5037, 5039, 5103, 5101, 5036, 5038, 5102, 5100
2610, 5039, 5041, 5105, 5103, 5038, 5040, 5104, 5102
2611, 5041, 5043, 5107, 5105, 5040, 5042, 5106, 5104
2612, 5043, 5045, 5109, 5107, 5042, 5044, 5108, 5106
2613, 5045, 5047, 5111, 5109, 5044, 5046, 5110, 5108
2614, 5047, 5049, 5113, 5111, 5046, 5048, 5112, 5110
2615, 5049, 5051, 5115, 5113, 5048, 5050, 5114, 5112
2616, 5051, 5053, 5117, 5115, 5050, 5052, 5116, 5114
2617, 5053, 5055, 5119, 5117, 5052, 5054, 5118, 5116
2618, 5055, 5057, 5121, 5119, 5054, 5056, 5120, 5118
2619, 5057, 5059, 5123, 5121, 5056, 5058, 5122, 5120
2620, 5059, 5061, 5125, 5123, 5058, 5060, 5124, 5122
2621, 5061, 5063, 5127, 5125, 5060, 5062, 5126, 5124
2622, 5063, 5065, 5129, 5127, 5062, 5064, 5128, 5126
2623, 5065, 5067, 5131, 5129, 5064, 5066, 5130, 5128
2624, 5067, 5069, 5133, 5131, 5066, 5068, 5132, 5130
2625, 4031, 5071, 5135, 4097, 4030, 5070, 5134, 4096
2626, 5071, 5073, 5137, 5135, 5070, 5072, 5136, 5134
2627, 5073, 5075, 5139, 5137, 5072, 5074, 5138, 5136
2628, 5075, 5077, 5141, 5139, 5074, 5076, 5140, 5138
2629, 5077, 5079, 5143, 5141, 5076, 5078, 5142, 5140
2630, 5079, 5081, 5145, 5143, 5078, 5080, 5144, 5142
2631, 5081, 5083, 5147, 5145, 5080, 5082, 5146, 5144
2632, 5083, 5085, 5149, 5147, 5082, 5084, 5148, 5146
2633, 5085, 5087, 5151, 5149, 5084, 5086, 5150, 5148
2634, 5087, 5089, 5153, 5151, 5086, 5088, 5152, 5150
2635, 5089, 5091, 5155, 5153, 5088, 5090, 5154, 5152
2636, 5091, 5093, 5157, 5155, 5090, 5092, 5156, 5154
2637, 5093, 5095, 5159, 5157, 5092, 5094, 5158, 5156
2638, 5095, 5097, 5161, 5159, 5094, 5096, 5160, 5158
2639, 5097, 5099, 5163, 5161, 5096, 5098, 5162, 5160
2640, 5099, 5101, 5165, 5163, 5098, 5100, 5164, 5162
2641, 5101, 5103, 5167, 5165, 5100, 5102, 5166, 5164
2642, 5103, 5105, 5169, 5167, 5102, 5104, 5168, 5166
2643, 5105, 5107, 5171, 5169, 5104, 5106, 5170, 5168
2644, 5107, 5109, 5173, 5171, 5106, 5108, 5172, 5170
2645, 5109, 5111, 5175, 5173, 5108, 5110, 5174, 5172
2646, 5111, 5113, 5177, 5175, 5110, 5112, 5176, 5174
2647, 5113, 5115, 5179, 5177, 5112, 5114, 5178, 5176
2648, 5115, 5117, 5181, 5179, 5114, 5116, 5180, 5178
2649, 5117, 5119, 5183, 5181, 5116, 5118, 5182, 5180
2650, 5119, 5121, 5185, 5183, 5118, 5120, 5184, 5182
2651, 5121, 5123, 5187, 5185, 5120, 5122, 5186, 5184
2652, 5123, 5125, 5189, 5187, 5122, 5124, 5188, 5186
2653, 5125, 5127, 5191, 5189, 5124, 5126, 5190, 5188
2654, 5127, 5129, 5193, 5191, 5126, 5128, 5192, 5190
2655, 5129, 5131, 5195, 5193, 5128, 5130, 5194, 5192
2656, 5131, 5133, 5197, 5195, 5130, 5132, 5196, 5194
2657, 4097, 5135, 5199, 4163, 4096, 5134, 5198, 4162
2658, 5135, 5137, 5201, 5199, 5134, 5136, 5200, 5198
2659, 5137, 5139, 5203, 5201, 5136, 5138, 5202, 5200
2660, 5139, 5141, 5205, 5203, 5138, 5140, 5204, 5202
2661, 5141, 5143, 5207, 5205, 5140, 5142, 5206, 5204
2662, 5143, 5145, 5209, 5207, 5142, 5144, 5208, 5206
2663, 5145, 5147, 5211, 5209, 5144, 5146, 5210, 5208
2664, 5147, 5149, 5213, 5211, 5146, 5148, 5212, 5210
2665, 5149, 5151, 5215, 5213, 5148, 5150, 5214, 5212
2666, 5151, 5153, 5217, 5215, 5150, 5152, 5216, 5214
2667, 5153, 5155, 5219, 5217, 5152, 5154, 5218, 5216
2668, 5155, 5157, 5221, 5219, 5154, 5156, 5220, 5218
2669, 5157, 5159, 5223, 5221, 5156, 5158, 5222, 5220
2670, 5159, 5161, 5225, 5223, 5158, 5160, 5224, 5222
2671, 5161, 5163, 5227, 5225, 5160, 5162, 5226, 5224
2672, 5163, 5165, 5229, 5227, 5162, 5164, 5228, 5226
2673, 5165, 5167, 5231, 5229, 5164, 5166, 5230, 5228
2674, 5167, 5169, 5233, 5231, 5166, 5168, 5232, 5230
2675, 5169, 5171, 5235, 5233, 5168, 5170, 5234, 5232
2676, 5171, 5173, 5237, 5235, 5170, 5172, 5236, 5234
2677, 5173, 5175, 5239, 5237, 5172, 5174, 5238, 5236
2678, 5175, 5177, 5241, 5239, 5174, 5176, 5240, 5238
2679, 5177, 5179, 5243, 5241, 5176, 5178, 5242, 5240
2680, 5179, 5181, 5245, 5243, 5178, 5180, 5244, 5242
2681, 5181, 5183, 5247, 5245, 5180, 5182, 5246, 5244
2682, 5183, 5185, 5249, 5247, 5182, 5184, 5248, 5246
2683, 5185, 5187, 5251, 5249, 5184, 5186, 5250, 5248
2684, 5187, 5189, 5253, 5251, 5186, 5188, 5252, 5250
2685, 5189, 5191, 5255, 5253, 5188, 5190, 5254, 5252
2686, 5191, 5193, 5257, 5255, 5190, 5192, 5256, 5254
2687, 5193, 5195, 5259, 5257, 5192, 5194, 5258, 5256
2688, 5195, 5197, 5261, 5259, 5194, 5196, 5260, 5258
2689, 4163, 5199, 5263, 4229, 4162, 5198, 5262, 4228
2690, 5199, 5201, 5265, 5263, 5198, 5200, 5264, 5262
2691, 5201, 5203, 5267, 5265, 5200, 5202, 5266, 5264
2692, 5203, 5205, 5269, 5267, 5202, 5204, 5268, 5266
2693, 5205, 5207, 5271, 5269, 5204, 5206, 5270, 5268
2694, 5207, 5209, 5273, 5271, 5206, 5208, 5272, 5270
2695, 5209, 5211, 5275, 5273, 5208, 5210, 5274, 5272
2696, 5211, 5213, 5277, 5275, 5210, 5212, 5276, 5274
2697, 5213, 5215, 5279, 5277, 5212, 5214, 5278, 5276
2698, 5215, 5217, 5281, 5279, 5214, 5216, 5280, 5278
2699, 5217, 5219, 5283, 5281, 5216, 5218, 5282, 5280
2700, 5219, 5221, 5285, 5283, 5218, 5220, 5284, 5282
2701, 5221, 5223, 5287, 5285, 5220, 5222, 5286, 5284
2702, 5223, 5225, 5289, 5287, 5222, 5224, 5288, 5286
2703, 5225, 5227, 5291, 5289, 5224, 5226, 5290, 5288
2704, 5227, 5229, 5293, 5291, 5226, 5228, 5292, 5290
2705, 5229, 5231, 5295, 5293, 5228, 5230, 5294, 5292
2706, 5231, 5233, 5297, 5295, 5230, 5232, 5296, 5294
2707, 5233, 5235, 5299, 5297, 5232, 5234, 5298, 5296
2708, 5235, 5237, 5301, 5299, 5234, 5236, 5300, 5298
2709, 5237, 5239, 5303, 5301, 5236, 5238, 5302, 5300
2710, 5239, 5241, 5305, 5303, 5238, 5240, 5304, 5302
2711, 5241, 5243, 5307, 5305, 5240, 5242, 5306, 5304
2712, 5243, 5245, 5309, 5307, 5242, 5244, 5308, 5306
2713, 5245, 5247, 5311, 5309, 5244, 5246, 5310, 5308
2714, 5247, 5249, 5313, 5311, 5246, 5248, 5312, 5310
2715, 5249, 5251, 5315, 5313, 5248, 5250, 5314, 5312
2716, 5251, 5253, 5317, 5315, 5250, 5252, 5316, 5314
2717, 5253, 5255, 5319, 5317, 5252, 5254, 5318, 5316
2718, 5255, 5257, 5321, 5319, 5254, 5256, 5320, 5318
2719, 5257, 5259, 5323, 5321, 5256, 5258, 5322, 5320
2720, 5259, 5261, 5325, 5323, 5258, 5260, 5324, 5322
2721, 4229, 5263, 5327, 4295, 4228, 5262, 5326, 4294
2722, 5263, 5265, 5329, 5327, 5262, 5264, 5328, 5326
2723, 5265, 5267, 5331, 5329, 5264, 5266, 5330, 5328
2724, 5267, 5269, 5333, 5331, 5266, 5268, 5332, 5330
2725, 5269, 5271, 5335, 5333, 5268, 5270, 5334, 5332
2726, 5271, 5273, 5337, 5335, 5270, 5272, 5336, 5334
2727, 5273, 5275, 5339, 5337, 5272, 5274, 5338, 5336
2728, 5275, 5277, 5341, 5339, 5274, 5276, 5340, 5338
2729, 5277, 5279, 5343, 5341, 5276, 5278, 5342, 5340
2730, 5279, 5281, 5345, 5343, 5278, 5280, 5344, 5342
2731, 5281, 5283, 5347, 5345, 5280, 5282, 5346, 5344
2732, 5283, 5285, 5349, 5347, 5282, 5284, 5348, 5346
2733, 5285, 5287, 5351, 5349, 5284, 5286, 5350, 5348
2734, 5287, 5289, 5353, 5351, 5286, 5288, 5352, 5350
2735, 5289, 5291, 5355, 5353, 5288, 5290, 5354, 5352
2736, 5291, 5293, 5357, 5355, 5290, 5292, 5356, 5354
2737, 5293, 5295, 5359, 5357, 5292, 5294, 5358, 5356
2738, 5295, 5297, 5361, 5359, 5294, 5296, 5360, 5358
2739, 5297, 5299, 5363, 5361, 5296, 5298, 5362, 5360
2740, 5299, 5301, 5365, 5363, 5298, 5300, 5364, 5362
2741, 5301, 5303, 5367, 5365, 5300, 5302, 5366, 5364
2742, 5303, 5305, 5369, 5367, 5302, 5304, 5368, 5366
2743, 5305, 5307, 5371, 5369, 5304, 5306, 5370, 5368
2744, 5307, 5309, 5373, 5371, 5306, 5308, 5372, 5370
2745, 5309, 5311, 5375, 5373, 5308, 5310, 5374, 5372
2746, 5311, 5313, 5377, 5375, 5310, 5312, 5376, 5374
2747, 5313, 5315, 5379, 5377, 5312, 5314, 5378, 5376
2748, 5315, 5317, 5381, 5379, 5314, 5316, 5380, 5378
2749, 5317, 5319, 5383, 5381, 5316, 5318, 5382, 5380
2750, 5319, 5321, 5385, 5383, 5318, 5320, 5384, 5382
2751, 5321, 5323, 5387, 5385, 5320, 5322, 5386, 5384
2752, 5323, 5325, 5389, 5387, 5322, 5324, 5388, 5386
2753, 4295, 5327, 5391, 4361, 4294, 5326, 5390, 4360
2754, 5327, 5329, 5393, 5391, 5326, 5328, 5392, 5390
2755, 5329, 5331, 5395, 5393, 5328, 5330, 5394, 5392
2756, 5331, 5333, 5397, 5395, 5330, 5332, 5396, 5394
2757, 5333, 5335, 5399, 5397, 5332, 5334, 5398, 5396
2758, 5335, 5337, 5401, 5399, 5334, 5336, 5400, 5398
2759, 5337, 5339, 5403, 5401, 5336, 5338, 5402, 5400
2760, 5339, 5341, 5405, 5403, 5338, 5340, 5404, 5402
2761, 5341, 5343, 5407, 5405, 5340, 5342, 5406, 5404
2762, 5343, 5345, 5409, 5407, 5342, 5344, 5408, 5406
2763, 5345, 5347, 5411, 5409, 5344, 5346, 5410, 5408
2764, 5347, 5349, 5413, 5411, 5346, 5348, 5412, 5410
2765, 5349, 5351, 5415, 5413, 5348, 5350, 5414, 5412
2766, 5351, 5353, 5417, 5415, 5350, 5352, 5416, 5414
2767, 5353, 5355, 5419, 5417, 5352, 5354, 5418, 5416
2768, 5355, 5357, 5421, 5419, 5354, 5356, 5420, 5418
2769, 5357, 5359, 5423, 5421, 5356, 5358, 5422, 5420
2770, 5359, 5361, 5425, 5423, 5358, 5360, 5424, 5422
2771, 5361, 5363, 5427, 5425, 5360, 5362, 5426, 5424
2772, 5363, 5365, 5429, 5427, 5362, 5364, 5428, 5426
2773, 5365, 5367, 5431, 5429, 5364, 5366, 5430, 5428
2774, 5367, 5369, 5433, 5431, 5366, 5368, 5432, 5430
2775, 5369, 5371, 5435, 5433, 5368, 5370, 5434, 5432
2776, 5371, 5373, 5437, 5435, 5370, 5372, 5436, 5434
2777, 5373, 5375, 5439, 5437, 5372, 5374, 5438, 5436
2778, 5375, 5377, 5441, 5439, 5374, 5376, 5440, 5438
2779, 5377, 5379, 5443, 5441, 5376, 5378, 5442, 5440
2780, 5379, 5381, 5445, 5443, 5378, 5380, 5444, 5442
2781, 5381, 5383, 5447, 5445, 5380, 5382, 5446, 5444
2782, 5383, 5385, 5449, 5447, 5382, 5384, 5448, 5446
2783, 5385, 5387, 5451, 5449, 5384, 5386, 5450, 5448
2784, 5387, 5389, 5453, 5451, 5386, 5388, 5452, 5450
2785, 4361, 5391, 5455, 4427, 4360, 5390, 5454, 4426
2786, 5391, 5393, 5457, 5455, 5390, 5392, 5456, 5454
2787, 5393, 5395, 5459, 5457, 5392, 5394, 5458, 5456
2788, 5395, 5397, 5461, 5459, 5394, 5396, 5460, 5458
2789, 5397, 5399, 5463, 5461, 5396, 5398, 5462, 5460
2790, 5399, 5401, 5465, 5463, 5398, 5400, 5464, 5462
2791, 5401, 5403, 5467, 5465, 5400, 5402, 5466, 5464
2792, 5403, 5405, 5469, 5467, 5402, 5404, 5468, 5466
2793, 5405, 5407, 5471, 5469, 5404, 5406, 5470, 5468
2794, 5407, 5409, 5473, 5471, 5406, 5408, 5472, 5470
2795, 5409, 5411, 5475, 5473, 5408, 5410, 5474, 5472
2796, 5411, 5413, 5477, 5475, 5410, 5412, 5476, 5474
2797, 5413, 5415, 5479, 5477, 5412, 5414, 5478, 5476
2798, 5415, 5417, 5481, 5479, 5414, 5416, 5480, 5478
2799, 5417, 5419, 5483, 5481, 5416, 5418, 5482, 5480
2800, 5419, 5421, 5485, 5483, 5418, 5420, 5484, 5482
2801, 5421, 5423, 5487, 5485, 5420, 5422, 5486, 5484
2802, 5423, 5425, 5489, 5487, 5422, 5424, 5488, 5486
2803, 5425, 5427, 5491, 5489, 5424, 5426, 5490, 5488
2804, 5427, 5429, 5493, 5491, 5426, 5428, 5492, 5490
2805, 5429, 5431, 5495, 5493, 5428, 5430, 5494, 5492
2806, 5431, 5433, 5497, 5495, 5430, 5432, 5496, 5494
2807, 5433, 5435, 5499, 5497, 5432, 5434, 5498, 5496
2808, 5435, 5437, 5501, 5499, 5434, 5436, 5500, 5498
2809, 5437, 5439, 5503, 5501, 5436, 5438, 5502, 5500
2810, 5439, 5441, 5505, 5503, 5438, 5440, 5504, 5502
2811, 5441, 5443, 5507, 5505, 5440, 5442, 5506, 5504
2812, 5443, 5445, 5509, 5507, 5442, 5444, 5508, 5506
2813, 5445, 5447, 5511, 5509, 5444, 5446, 5510, 5508
2814, 5447, 5449, 5513, 5511, 5446, 5448, 5512, 5510
2815, 5449, 5451, 5515, 5513, 5448, 5450, 5514, 5512
2816, 5451, 5453, 5517, 5515, 5450, 5452, 5516, 5514
2817, 4427, 5455, 5519, 4493, 4426, 5454, 5518, 4492
2818, 5455, 5457, 5521, 5519, 5454, 5456, 5520, 5518
2819, 5457, 5459, 5523, 5521, 5456, 5458, 5522, 5520
2820, 5459, 5461, 5525, 5523, 5458, 5460, 5524, 5522
2821, 5461, 5463, 5527, 5525, 5460, 5462, 5526, 5524
2822, 5463, 5465, 5529, 5527, 5462, 5464, 5528, 5526
2823, 5465, 5467, 5531, 5529, 5464, 5466, 5530, 5528
2824, 5467, 5469, 5533, 5531, 5466, 5468, 5532, 5530
2825, 5469, 5471, 5535, 5533, 5468, 5470, 5534, 5532
2826, 5471, 5473, 5537, 5535, 5470, 5472, 5536, 5534
2827, 5473, 5475, 5539, 5537, 5472, 5474, 5538, 5536
2828, 5475, 5477, 5541, 5539, 5474, 5476, 5540, 5538
2829, 5477, 5479, 5543, 5541, 5476, 5478, 5542, 5540
2830, 5479, 5481, 5545, 5543, 5478, 5480, 5544, 5542
2831, 5481, 5483, 5547, 5545, 5480, 5482, 5546, 5544
2832, 5483, 5485, 5549, 5547, 5482, 5484, 5548, 5546
2833, 5485, 5487, 5551, 5549, 5484, 5486, 5550, 5548
2834, 5487, 5489, 5553, 5551, 5486, 5488, 5552, 5550
2835, 5489, 5491, 5555, 5553, 5488, 5490, 5554, 5552
2836, 5491, 5493, 5557, 5555, 5490, 5492, 5556, 5554
2837, 5493, 5495, 5559, 5557, 5492, 5494, 5558, 5556
2838, 5495, 5497, 5561, 5559, 5494, 5496, 5560, 5558
2839, 5497, 5499, 5563, 5561, 5496, 5498, 5562, 5560
2840, 5499, 5501, 5565, 5563, 5498, 5500, 5564, 5562
2841, 5501, 5503, 5567, 5565, 5500, 5502, 5566, 5564
2842, 5503, 5505, 5569, 5567, 5502, 5504, 5568, 5566
2843, 5505, 5507, 5571, 5569, 5504, 5506, 5570, 5568
2844, 5507, 5509, 5573, 5571, 5506, 5508, 5572, 5570
2845, 5509, 5511, 5575, 5573, 5508, 5510, 5574, 5572
2846, 5511, 5513, 5577, 5575, 5510, 5512, 5576, 5574
2847, 5513, 5515, 5579, 5577, 5512, 5514, 5578, 5576
2848, 5515, 5517, 5581, 5579, 5514, 5516, 5580, 5578
2849, 1389, 1455, 5583, 4621, 1388, 1454, 5582, 4620
2850, 1455, 1521, 5585, 5583, 1454, 1520, 5584, 5582
2851, 1521, 1587, 5587, 5585, 1520, 1586, 5586, 5584
2852, 1587, 1653, 5589, 5587, 1586, 1652, 5588, 5586
2853, 1653, 1719, 5591, 5589, 1652, 1718, 5590, 5588
2854, 1719, 1785, 5593, 5591, 1718, 1784, 5592, 5590
2855, 1785, 1851, 5595, 5593, 1784, 1850, 5594, 5592
2856, 1851, 1917, 5597, 5595, 1850, 1916, 5596, 5594
2857, 1917, 1983, 5599, 5597, 1916, 1982, 5598, 5596
2858, 1983, 2049, 5601, 5599, 1982, 2048, 5600, 5598
2859, 2049, 2115, 5603, 5601, 2048, 2114, 5602, 5600
2860, 2115, 2181, 5605, 5603, 2114, 2180, 5604, 5602
2861, 2181, 2247, 5607, 5605, 2180, 2246, 5606, 5604
2862, 2247, 2313, 5609, 5607, 2246, 2312, 5608, 5606
2863, 2313, 2379, 5611, 5609, 2312, 2378, 5610, 5608
2864, 2379, 2445, 5613, 5611, 2378, 2444, 5612, 5610
2865, 2445, 2511, 5615, 5613, 2444, 2510, 5614, 5612
2866, 2511, 2577, 5617, 5615, 2510, 2576, 5616, 5614
2867, 2577, 2643, 5619, 5617, 2576, 2642, 5618, 5616
2868, 2643, 2709, 5621, 5619, 2642, 2708, 5620, 5618
2869, 2709, 2775, 5623, 5621, 2708, 2774, 5622, 5620
2870, 2775, 2841, 5625, 5623, 2774, 2840, 5624, 5622
2871, 2841, 2907, 5627, 5625, 2840, 2906, 5626, 5624
2872, 2907, 2973, 5629, 5627, 2906, 2972, 5628, 5626
2873, 2973, 3039, 5631, 5629, 2972, 3038, 5630, 5628
2874, 3039, 3105, 5633, 5631, 3038, 3104, 5632, 5630
2875, 3105, 3171, 5635, 5633, 3104, 3170, 5634, 5632
2876, 3171, 3237, 5637, 5635, 3170, 3236, 5636, 5634
2877, 3237, 3303, 5639, 5637, 3236, 3302, 5638, 5636
2878, 3303, 3369, 5641, 5639, 3302, 3368, 5640, 5638
2879, 3369, 3435, 5643, 5641, 3368, 3434, 5642, 5640
2880, 3435, 3501, 5645, 5643, 3434, 3500, 5644, 5642
2881, 4621, 5583, 5647, 4685, 4620, 5582, 5646, 4684
2882, 5583, 5585, 5649, 5647, 5582, 5584, 5648, 5646
2883, 5585, 5587, 5651, 5649, 5584, 5586, 5650, 5648
2884, 5587, 5589, 5653, 5651, 5586, 5588, 5652, 5650
2885, 5589, 5591, 5655, 5653, 5588, 5590, 5654, 5652
2886, 5591, 5593, 5657, 5655, 5590, 5592, 5656, 5654
2887, 5593, 5595, 5659, 5657, 5592, 5594, 5658, 5656
2888, 5595, 5597, 5661, 5659, 5594, 5596, 5660, 5658
2889, 5597, 5599, 5663, 5661, 5596, 5598, 5662, 5660
2890, 5599, 5601, 5665, 5663, 5598, 5600, 5664, 5662
2891, 5601, 5603, 5667, 5665, 5600, 5602, 5666, 5664
2892, 5603, 5605, 5669, 5667, 5602, 5604, 5668, 5666
2893, 5605, 5607, 5671, 5669, 5604, 5606, 5670, 5668
2894, 5607, 5609, 5673, 5671, 5606, 5608, 5672, 5670
2895, 5609, 5611, 5675, 5673, 5608, 5610, 5674, 5672
2896, 5611, 5613, 5677, 5675, 5610, 5612, 5676, 5674
2897, 5613, 5615, 5679, 5677, 5612, 5614, 5678, 5676
2898, 5615, 5617, 5681, 5679, 5614, 5616, 5680, 5678
2899, 5617, 5619, 5683, 5681, 5616, 5618, 5682, 5680
2900, 5619, 5621, 5685, 5683, 5618, 5620, 5684, 5682
2901, 5621, 5623, 5687, 5685, 5620, 5622, 5686, 5684
2902, 5623, 5625, 5689, 5687, 5622, 5624, 5688, 5686
2903, 5625, 5627, 5691, 5689, 5624, 5626, 5690, 5688
2904, 5627, 5629, 5693, 5691, 5626, 5628, 5692, 5690
2905, 5629, 5631, 5695, 5693, 5628, 5630, 5694, 5692
2906, 5631, 5633, 5697, 5695, 5630, 5632, 5696, 5694
2907, 5633, 5635, 5699, 5697, 5632, 5634, 5698, 5696
2908, 5635, 5637, 5701, 5699, 5634, 5636, 5700, 5698
2909, 5637, 5639, 5703, 5701, 5636, 5638, 5702, 5700
2910, 5639, 5641, 5705, 5703, 5638, 5640, 5704, 5702
2911, 5641, 5643, 5707, 5705, 5640, 5642, 5706, 5704
2912, 5643, 5645, 5709, 5707, 5642, 5644, 5708, 5706
2913, 4685, 5647, 5711, 4749, 4684, 5646, 5710, 4748
2914, 5647, 5649, 5713, 5711, 5646, 5648, 5712, 5710
2915, 5649, 5651, 5715, 5713, 5648, 5650, 5714, 5712
2916, 5651, 5653, 5717, 5715, 5650, 5652, 5716, 5714
2917, 5653, 5655, 5719, 5717, 5652, 5654, 5718, 5716
2918, 5655, 5657, 5721, 5719, 5654, 5656, 5720, 5718
2919, 5657, 5659, 5723, 5721, 5656, 5658, 5722, 5720
2920, 5659, 5661, 5725, 5723, 5658, 5660, 5724, 5722
2921, 5661, 5663, 5727, 5725, 5660, 5662, 5726, 5724
2922, 5663, 5665, 5729, 5727, 5662, 5664, 5728, 5726
2923, 5665, 5667, 5731, 5729, 5664, 5666, 5730, 5728
2924, 5667, 5669, 5733, 5731, 5666, 5668, 5732, 5730
2925, 5669, 5671, 5735, 5733, 5668, 5670, 5734, 5732
2926, 5671, 5673, 5737, 5735, 5670, 5672, 5736, 5734
2927, 5673, 5675, 5739, 5737, 5672, 5674, 5738, 5736
2928, 5675, 5677, 5741, 5739, 5674, 5676, 5740, 5738
2929, 5677, 5679, 5743, 5741, 5676, 5678, 5742, 5740
2930, 5679, 5681, 5745, 5743, 5678, 5680, 5744, 5742
2931, 5681, 5683, 5747, 5745, 5680, 5682, 5746, 5744
2932, 5683, 5685, 5749, 5747, 5682, 5684, 5748, 5746
2933, 5685, 5687, 5751, 5749, 5684, 5686, 5750, 5748
2934, 5687, 5689, 5753, 5751, 5686, 5688, 5752, 5750
2935, 5689, 5691, 5755, 5753, 5688, 5690, 5754, 5752
2936, 5691, 5693, 5757, 5755, 5690, 5692, 5756, 5754
2937, 5693, 5695, 5759, 5757, 5692, 5694, 5758, 5756
2938, 5695, 5697, 5761, 5759, 5694, 5696, 5760, 5758
2939, 5697, 5699, 5763, 5761, 5696, 5698, 5762, 5760
2940, 5699, 5701, 5765, 5763, 5698, 5700, 5764, 5762
2941, 5701, 5703, 5767, 5765, 5700, 5702, 5766, 5764
2942, 5703, 5705, 5769, 5767, 5702, 5704, 5768, 5766
2943, 5705, 5707, 5771, 5769, 5704, 5706, 5770, 5768
2944, 5707, 5709, 5773, 5771, 5706, 5708, 5772, 5770
2945, 4749, 5711, 5775, 4813, 4748, 5710, 5774, 4812
2946, 5711, 5713, 5777, 5775, 5710, 5712, 5776, 5774
2947, 5713, 5715, 5779, 5777, 5712, 5714, 5778, 5776
2948, 5715, 5717, 5781, 5779, 5714, 5716, 5780, 5778
2949, 5717, 5719, 5783, 5781, 5716, 5718, 5782, 5780
2950, 5719, 5721, 5785, 5783, 5718, 5720, 5784, 5782
2951, 5721, 5723, 5787, 5785, 5720, 5722, 5786, 5784
2952, 5723, 5725, 5789, 5787, 5722, 5724, 5788, 5786
2953, 5725, 5727, 5791, 5789, 5724, 5726, 5790, 5788
2954, 5727, 5729, 5793, 5791, 5726, 5728, 5792, 5790
2955, 5729, 5731, 5795, 5793, 5728, 5730, 5794, 5792
2956, 5731, 5733, 5797, 5795, 5730, 5732, 5796, 5794
2957, 5733, 5735, 5799, 5797, 5732, 5734, 5798, 5796
2958, 5735, 5737, 5801, 5799, 5734, 5736, 5800, 5798
2959, 5737, 5739, 5803, 5801, 5736, 5738, 5802, 5800
2960, 5739, 5741, 5805, 5803, 5738, 5740, 5804, 5802
2961, 5741, 5743, 5807, 5805, 5740, 5742, 5806, 5804
2962, 5743, 5745, 5809, 5807, 5742, 5744, 5808, 5806
2963, 5745, 5747, 5811, 5809, 5744, 5746, 5810, 5808
2964, 5747, 5749, 5813, 5811, 5746, 5748, 5812, 5810
2965, 5749, 5751, 5815, 5813, 5748, 5750, 5814, 5812
2966, 5751, 5753, 5817, 5815, 5750, 5752, 5816, 5814
2967, 5753, 5755, 5819, 5817, 5752, 5754, 5818, 5816
2968, 5755, 5757, 5821, 5819, 5754, 5756, 5820, 5818
2969, 5757, 5759, 5823, 5821, 5756, 5758, 5822, 5820
2970, 5759, 5761, 5825, 5823, 5758, 5760, 5824, 5822
2971, 5761, 5763, 5827, 5825, 5760, 5762, 5826, 5824
2972, 5763, 5765, 5829, 5827, 5762, 5764, 5828, 5826
2973, 5765, 5767, 5831, 5829, 5764, 5766, 5830, 5828
2974, 5767, 5769, 5833, 5831, 5766, 5768, 5832, 5830
2975, 5769, 5771, 5835, 5833, 5768, 5770, 5834, 5832
2976, 5771, 5773, 5837, 5835, 5770, 5772, 5836, 5834
2977, 4813, 5775, 5839, 4877, 4812, 5774, 5838, 4876
2978, 5775, 5777, 5841, 5839, 5774, 5776, 5840, 5838
2979, 5777, 5779, 5843, 5841, 5776, 5778, 5842, 5840
2980, 5779, 5781, 5845, 5843, 5778, 5780, 5844, 5842
2981, 5781, 5783, 5847, 5845, 5780, 5782, 5846, 5844
2982, 5783, 5785, 5849, 5847, 5782, 5784, 5848, 5846
2983, 5785, 5787, 5851, 5849, 5784, 5786, 5850, 5848
2984, 5787, 5789, 5853, 5851, 5786, 5788, 5852, 5850
2985, 5789, 5791, 5855, 5853, 5788, 5790, 5854, 5852
2986, 5791, 5793, 5857, 5855, 5790, 5792, 5856, 5854
2987, 5793, 5795, 5859, 5857, 5792, 5794, 5858, 5856
2988, 5795, 5797, 5861, 5859, 5794, 5796, 5860, 5858
2989, 5797, 5799, 5863, 5861, 5796, 5798, 5862, 5860
2990, 5799, 5801, 5865, 5863, 5798, 5800, 5864, 5862
2991, 5801, 5803, 5867, 5865, 5800, 5802, 5866, 5864
2992, 5803, 5805, 5869, 5867, 5802, 5804, 5868, 5866
2993, 5805, 5807, 5871, 5869, 5804, 5806, 5870, 5868
2994, 5807, 5809, 5873, 5871, 5806, 5808, 5872, 5870
2995, 5809, 5811, 5875, 5873, 5808, 5810, 5874, 5872
2996, 5811, 5813, 5877, 5875, 5810, 5812, 5876, 5874
2997, 5813, 5815, 5879, 5877, 5812, 5814, 5878, 5876
2998, 5815, 5817, 5881, 5879, 5814, 5816, 5880, 5878
2999, 5817, 5819, 5883, 5881, 5816, 5818, 5882, 5880
3000, 5819, 5821, 5885, 5883, 5818, 5820, 5884, 5882
3001, 5821, 5823, 5887, 5885, 5820, 5822, 5886, 5884
3002, 5823, 5825, 5889, 5887, 5822, 5824, 5888, 5886
3003, 5825, 5827, 5891, 5889, 5824, 5826, 5890, 5888
3004, 5827, 5829, 5893, 5891, 5826, 5828, 5892, 5890
3005, 5829, 5831, 5895, 5893, 5828, 5830, 5894, 5892
3006, 5831, 5833, 5897, 5895, 5830, 5832, 5896, 5894
3007, 5833, 5835, 5899, 5897, 5832, 5834, 5898, 5896
3008, 5835, 5837, 5901, 5899, 5834, 5836, 5900, 5898
3009, 4877, 5839, 5903, 4941, 4876, 5838, 5902, 4940
3010, 5839, 5841, 5905, 5903, 5838, 5840, 5904, 5902
3011, 5841, 5843, 5907, 5905, 5840, 5842, 5906, 5904
3012, 5843, 5845, 5909, 5907, 5842, 5844, 5908, 5906
3013, 5845, 5847, 5911, 5909, 5844, 5846, 5910, 5908
3014, 5847, 5849, 5913, 5911, 5846, 5848, 5912, 5910
3015, 5849, 5851, 5915, 5913, 5848, 5850, 5914, 5912
3016, 5851, 5853, 5917, 5915, 5850, 5852, 5916, 5914
3017, 5853, 5855, 5919, 5917, 5852, 5854, 5918, 5916
3018, 5855, 5857, 5921, 5919, 5854, 5856, 5920, 5918
3019, 5857, 5859, 5923, 5921, 5856, 5858, 5922, 5920
3020, 5859, 5861, 5925, 5923, 5858, 5860, 5924, 5922
3021, 5861, 5863, 5927, 5925, 5860, 5862, 5926, 5924
3022, 5863, 5865, 5929, 5927, 5862, 5864, 5928, 5926
3023, 5865, 5867, 5931, 5929, 5864, 5866, 5930, 5928
3024, 5867, 5869, 5933, 5931, 5866, 5868, 5932, 5930
3025, 5869, 5871, 5935, 5933, 5868, 5870, 5934, 5932
3026, 5871, 5873, 5937, 5935, 5870, 5872, 5936, 5934
3027, 5873, 5875, 5939, 5937, 5872, 5874, 5938, 5936
3028, 5875, 5877, 5941, 5939, 5874, 5876, 5940, 5938
3029, 5877, 5879, 5943, 5941, 5876, 5878, 5942, 5940
3030, 5879, 5881, 5945, 5943, 5878, 5880, 5944, 5942
3031, 5881, 5883, 5947, 5945, 5880, 5882, 5946, 5944
3032, 5883, 5885, 5949, 5947, 5882, 5884, 5948, 5946
3033, 5885, 5887, 5951, 5949, 5884, 5886, 5950, 5948
3034, 5887, 5889, 5953, 5951, 5886, 5888, 5952, 5950
3035, 5889, 5891, 5955, 5953, 5888, 5890, 5954, 5952
3036, 5891, 5893, 5957, 5955, 5890, 5892, 5956, 5954
3037, 5893, 5895, 5959, 5957, 5892, 5894, 5958, 5956
3038, 5895, 5897, 5961, 5959, 5894, 5896, 5960, 5958
3039, 5897, 5899, 5963, 5961, 5896, 5898, 5962, 5960
3040, 5899, 5901, 5965, 5963, 5898, 5900, 5964, 5962
3041, 4941, 5903, 5967, 5005, 4940, 5902, 5966, 5004
3042, 5903, 5905, 5969, 5967, 5902, 5904, 5968, 5966
3043, 5905, 5907, 5971, 5969, 5904, 5906, 5970, 5968
3044, 5907, 5909, 5973, 5971, 5906, 5908, 5972, 5970
3045, 5909, 5911, 5975, 5973, 5908, 5910, 5974, 5972
3046, 5911, 5913, 5977, 5975, 5910, 5912, 5976, 5974
3047, 5913, 5915, 5979, 5977, 5912, 5914, 5978, 5976
3048, 5915, 5917, 5981, 5979, 5914, 5916, 5980, 5978
3049, 5917, 5919, 5983, 5981, 5916, 5918, 5982, 5980
3050, 5919, 5921, 5985, 5983, 5918, 5920, 5984, 5982
3051, 5921, 5923, 5987, 5985, 5920, 5922, 5986, 5984
3052, 5923, 5925, 5989, 5987, 5922, 5924, 5988, 5986
3053, 5925, 5927, 5991, 5989, 5924, 5926, 5990, 5988
3054, 5927, 5929, 5993, 5991, 5926, 5928, 5992, 5990
3055, 5929, 5931, 5995, 5993, 5928, 5930, 5994, 5992
3056, 5931, 5933, 5997, 5995, 5930, 5932, 5996, 5994
3057, 5933, 5935, 5999, 5997, 5932, 5934, 5998, 5996
3058, 5935, 5937, 6001, 5999, 5934, 5936, 6000, 5998
3059, 5937, 5939, 6003, 6001, 5936, 5938, 6002, 6000
3060, 5939, 5941, 6005, 6003, 5938, 5940, 6004, 6002
3061, 5941, 5943, 6007, 6005, 5940, 5942, 6006, 6004
3062, 5943, 5945, 6009, 6007, 5942, 5944, 6008, 6006
3063, 5945, 5947, 6011, 6009, 5944, 5946, 6010, 6008
3064, 5947, 5949, 6013, 6011, 5946, 5948, 6012, 6010
3065, 5949, 5951, 6015, 6013, 5948, 5950, 6014, 6012
3066, 5951, 5953, 6017, 6015, 5950, 5952, 6016, 6014
3067, 5953, 5955, 6019, 6017, 5952, 5954, 6018, 6016
3068, 5955, 5957, 6021, 6019, 5954, 5956, 6020, 6018
3069, 5957, 5959, 6023, 6021, 5956, 5958, 6022, 6020
3070, 5959, 5961, 6025, 6023, 5958, 5960, 6024, 6022
3071, 5961, 5963, 6027, 6025, 5960, 5962, 6026, 6024
3072, 5963, 5965, 6029, 6027, 5962, 5964, 6028, 6026
3073, 5005, 5967, 6031, 5069, 5004, 5966, 6030, 5068
3074, 5967, 5969, 6033, 6031, 5966, 5968, 6032, 6030
3075, 5969, 5971, 6035, 6033, 5968, 5970, 6034, 6032
3076, 5971, 5973, 6037, 6035, 5970, 5972, 6036, 6034
3077, 5973, 5975, 6039, 6037, 5972, 5974, 6038, 6036
3078, 5975, 5977, 6041, 6039, 5974, 5976, 6040, 6038
3079, 5977, 5979, 6043, 6041, 5976, 5978, 6042, 6040
3080, 5979, 5981, 6045, 6043, 5978, 5980, 6044, 6042
3081, 5981, 5983, 6047, 6045, 5980, 5982, 6046, 6044
3082, 5983, 5985, 6049, 6047, 5982, 5984, 6048, 6046
3083, 5985, 5987, 6051, 6049, 5984, 5986, 6050, 6048
3084, 5987, 5989, 6053, 6051, 5986, 5988, 6052, 6050
3085, 5989, 5991, 6055, 6053, 5988, 5990, 6054, 6052
3086, 5991, 5993, 6057, 6055, 5990, 5992, 6056, 6054
3087, 5993, 5995, 6059, 6057, 5992, 5994, 6058, 6056
3088, 5995, 5997, 6061, 6059, 5994, 5996, 6060, 6058
3089, 5997, 5999, 6063, 6061, 5996, 5998, 6062, 6060
3090, 5999, 6001, 6065, 6063, 5998, 6000, 6064, 6062
3091, 6001, 6003, 6067, 6065, 6000, 6002, 6066, 6064
3092, 6003, 6005, 6069, 6067, 6002, 6004, 6068, 6066
3093, 6005, 6007, 6071, 6069, 6004, 6006, 6070, 6068
3094, 6007, 6009, 6073, 6071, 6006, 6008, 6072, 6070
3095, 6009, 6011, 6075, 6073, 6008, 6010, 6074, 6072
3096, 6011, 6013, 6077, 6075, 6010, 6012, 6076, 6074
3097, 6013, 6015, 6079, 6077, 6012, 6014, 6078, 6076
3098, 6015, 6017, 6081, 6079, 6014, 6016, 6080, 6078
3099, 6017, 6019, 6083, 6081, 6016, 6018, 6082, 6080
3100, 6019, 6021, 6085, 6083, 6018, 6020, 6084, 6082
3101, 6021, 6023, 6087, 6085, 6020, 6022, 6086, 6084
3102, 6023, 6025, 6089, 6087, 6022, 6024, 6088, 6086
3103, 6025, 6027, 6091, 6089, 6024, 6026, 6090, 6088
3104, 6027, 6029, 6093, 6091, 6026, 6028, 6092, 6090
3105, 5069, 6031, 6095, 5133, 5068, 6030, 6094, 5132
3106, 6031, 6033, 6097, 6095, 6030, 6032, 6096, 6094
3107, 6033, 6035, 6099, 6097, 6032, 6034, 6098, 6096
3108, 6035, 6037, 6101, 6099, 6034, 6036, 6100, 6098
3109, 6037, 6039, 6103, 6101, 6036, 6038, 6102, 6100
3110, 6039, 6041, 6105, 6103, 6038, 6040, 6104, 6102
3111, 6041, 6043, 6107, 6105, 6040, 6042, 6106, 6104
3112, 6043, 6045, 6109, 6107, 6042, 6044, 6108, 6106
3113, 6045, 6047, 6111, 6109, 6044, 6046, 6110, 6108
3114, 6047, 6049, 6113, 6111, 6046, 6048, 6112, 6110
3115, 6049, 6051, 6115, 6113, 6048, 6050, 6114, 6112
3116, 6051, 6053, 6117, 6115, 6050, 6052, 6116, 6114
3117, 6053, 6055, 6119, 6117, 6052, 6054, 6118, 6116
3118, 6055, 6057, 6121, 6119, 6054, 6056, 6120, 6118
3119, 6057, 6059, 6123, 6121, 6056, 6058, 6122, 6120
3120, 6059, 6061, 6125, 6123, 6058, 6060, 6124, 6122
3121, 6061, 6063, 6127, 6125, 6060, 6062, 6126, 6124
3122, 6063, 6065, 6129, 6127, 6062, 6064, 6128, 6126
3123, 6065, 6067, 6131, 6129, 6064, 6066, 6130, 6128
3124, 6067, 6069, 6133, 6131, 6066, 6068, 6132, 6130
3125, 6069, 6071, 6135, 6133, 6068, 6070, 6134, 6132
3126, 6071, 6073, 6137, 6135, 6070, 6072, 6136, 6134
3127, 6073, 6075, 6139, 6137, 6072, 6074, 6138, 6136
3128, 6075, 6077, 6141, 6139, 6074, 6076, 6140, 6138
3129, 6077, 6079, 6143, 6141, 6076, 6078, 6142, 6140
3130, 6079, 6081, 6145, 6143, 6078, 6080, 6144, 6142
3131, 6081, 6083, 6147, 6145, 6080, 6082, 6146, 6144
3132, 6083, 6085, 6149, 6147, 6082, 6084, 6148, 6146
3133, 6085, 6087, 6151, 6149, 6084, 6086, 6150, 6148
3134, 6087, 6089, 6153, 6151, 6086, 6088, 6152, 6150
3135, 6089, 6091, 6155, 6153, 6088, 6090, 6154, 6152
3136, 6091, 6093, 6157, 6155, 6090, 6092, 6156, 6154
3137, 5133, 6095, 6159, 5197, 5132, 6094, 6158, 5196
3138, 6095, 6097, 6161, 6159, 6094, 6096, 6160, 6158
3139, 6097, 6099, 6163, 6161, 6096, 6098, 6162, 6160
3140, 6099, 6101, 6165, 6163, 6098, 6100, 6164, 6162
3141, 6101, 6103, 6167, 6165, 6100, 6102, 6166, 6164
3142, 6103, 6105, 6169, 6167, 6102, 6104, 6168, 6166
3143, 6105, 6107, 6171, 6169, 6104, 6106, 6170, 6168
3144, 6107, 6109, 6173, 6171, 6106, 6108, 6172, 6170
3145, 6109, 6111, 6175, 6173, 6108, 6110, 6174, 6172
3146, 6111, 6113, 6177, 6175, 6110, 6112, 6176, 6174
3147, 6113, 6115, 6179, 6177, 6112, 6114, 6178, 6176
3148, 6115, 6117, 6181, 6179, 6114, 6116, 6180, 6178
3149, 6117, 6119, 6183, 6181, 6116, 6118, 6182, 6180
3150, 6119, 6121, 6185, 6183, 6118, 6120, 6184, 6182
3151, 6121, 6123, 6187, 6185, 6120, 6122, 6186, 6184
3152, 6123, 6125, 6189, 6187, 6122, 6124, 6188, 6186
3153, 6125, 6127, 6191, 6189, 6124, 6126, 6190, 6188
3154, 6127, 6129, 6193, 6191, 6126, 6128, 6192, 6190
3155, 6129, 6131, 6195, 6193, 6128, 6130, 6194, 6192
3156, 6131, 6133, 6197, 6195, 6130, 6132, 6196, 6194
3157, 6133, 6135, 6199, 6197, 6132, 6134, 6198, 6196
3158, 6135, 6137, 6201, 6199, 6134, 6136, 6200, 6198
3159, 6137, 6139, 6203, 6201, 6136, 6138, 6202, 6200
3160, 6139, 6141, 6205, 6203, 6138, 6140, 6204, 6202
3161, 6141, 6143, 6207, 6205, 6140, 6142, 6206, 6204
3162, 6143, 6145, 6209, 6207, 6142, 6144, 6208, 6206
3163, 6145, 6147, 6211, 6209, 6144, 6146, 6210, 6208
3164, 6147, 6149, 6213, 6211, 6146, 6148, 6212, 6210
3165, 6149, 6151, 6215, 6213, 6148, 6150, 6214, 6212
3166, 6151, 6153, 6217, 6215, 6150, 6152, 6216, 6214
3167, 6153, 6155, 6219, 6217, 6152, 6154, 6218, 6216
3168, 6155, 6157, 6221, 6219, 6154, 6156, 6220, 6218
3169, 5197, 6159, 6223, 5261, 5196, 6158, 6222, 5260
3170, 6159, 6161, 6225, 6223, 6158, 6160, 6224, 6222
3171, 6161, 6163, 6227, 6225, 6160, 6162, 6226, 6224
3172, 6163, 6165, 6229, 6227, 6162, 6164, 6228, 6226
3173, 6165, 6167, 6231, 6229, 6164, 6166, 6230, 6228
3174, 6167, 6169, 6233, 6231, 6166, 6168, 6232, 6230
3175, 6169, 6171, 6235, 6233, 6168, 6170, 6234, 6232
3176, 6171, 6173, 6237, 6235, 6170, 6172, 6236, 6234
3177, 6173, 6175, 6239, 6237, 6172, 6174, 6238, 6236
3178, 6175, 6177, 6241, 6239, 6174, 6176, 6240, 6238
3179, 6177, 6179, 6243, 6241, 6176, 6178, 6242, 6240
3180, 6179, 6181, 6245, 6243, 6178, 6180, 6244, 6242
3181, 6181, 6183, 6247, 6245, 6180, 6182, 6246, 6244
3182, 6183, 6185, 6249, 6247, 6182, 6184, 6248, 6246
3183, 6185, 6187, 6251, 6249, 6184, 6186, 6250, 6248
3184, 6187, 6189, 6253, 6251, 6186, 6188, 6252, 6250
3185, 6189, 6191, 6255, 6253, 6188, 6190, 6254, 6252
3186, 6191, 6193, 6257, 6255, 6190, 6192, 6256, 6254
3187, 6193, 6195, 6259, 6257, 6192, 6194, 6258, 6256
3188, 6195, 6197, 6261, 6259, 6194, 6196, 6260, 6258
3189, 6197, 6199, 6263, 6261, 6196, 6198, 6262, 6260
3190, 6199, 6201, 6265, 6263, 6198, 6200, 6264, 6262
3191, 6201, 6203, 6267, 6265, 6200, 6202, 6266, 6264
3192, 6203, 6205, 6269, 6267, 6202, 6204, 6268, 6266
3193, 6205, 6207, 6271, 6269, 6204, 6206, 6270, 6268
3194, 6207, 6209, 6273, 6271, 6206, 6208, 6272, 6270
3195, 6209, 6211, 6275, 6273, 6208, 6210, 6274, 6272
3196, 6211, 6213, 6277, 6275, 6210, 6212, 6276, 6274
3197, 6213, 6215, 6279, 6277, 6212, 6214, 6278, 6276
3198, 6215, 6217, 6281, 6279, 6214, 6216, 6280, 6278
3199, 6217, 6219, 6283, 6281, 6216, 6218, 6282, 6280
3200, 6219, 6221, 6285, 6283, 6218, 6220, 6284, 6282
3201, 5261, 6223, 6287, 5325, 5260, 6222, 6286, 5324
3202, 6223, 6225, 6289, 6287, 6222, 6224, 6288, 6286
3203, 6225, 6227, 6291, 6289, 6224, 6226, 6290, 6288
3204, 6227, 6229, 6293, 6291, 6226, 6228, 6292, 6290
3205, 6229, 6231, 6295, 6293, 6228, 6230, 6294, 6292
3206, 6231, 6233, 6297, 6295, 6230, 6232, 6296, 6294
3207, 6233, 6235, 6299, 6297, 6232, 6234, 6298, 6296
3208, 6235, 6237, 6301, 6299, 6234, 6236, 6300, 6298
3209, 6237, 6239, 6303, 6301, 6236, 6238, 6302, 6300
3210, 6239, 6241, 6305, 6303, 6238, 6240, 6304, 6302
3211, 6241, 6243, 6307, 6305, 6240, 6242, 6306, 6304
3212, 6243, 6245, 6309, 6307, 6242, 6244, 6308, 6306
3213, 6245, 6247, 6311, 6309, 6244, 6246, 6310, 6308
3214, 6247, 6249, 6313, 6311, 6246, 6248, 6312, 6310
3215, 6249, 6251, 6315, 6313, 6248, 6250, 6314, 6312
3216, 6251, 6253, 6317, 6315, 6250, 6252, 6316, 6314
3217, 6253, 6255, 6319, 6317, 6252, 6254, 6318, 6316
3218, 6255, 6257, 6321, 6319, 6254, 6256, 6320, 6318
3219, 6257, 6259, 6323, 6321, 6256, 6258, 6322, 6320
3220, 6259, 6261, 6325, 6323, 6258, 6260, 6324, 6322
3221, 6261, 6263, 6327, 6325, 6260, 6262, 6326, 6324
3222, 6263, 6265, 6329, 6327, 6262, 6264, 6328, 6326
3223, 6265, 6267, 6331, 6329, 6264, 6266, 6330, 6328
3224, 6267, 6269, 6333, 6331, 6266, 6268, 6332, 6330
3225, 6269, 6271, 6335, 6333, 6268, 6270, 6334, 6332
3226, 6271, 6273, 6337, 6335, 6270, 6272, 6336, 6334
3227, 6273, 6275, 6339, 6337, 6272, 6274, 6338, 6336
3228, 6275, 6277, 6341, 6339, 6274, 6276, 6340, 6338
3229, 6277, 6279, 6343, 6341, 6276, 6278, 6342, 6340
3230, 6279, 6281, 6345, 6343, 6278, 6280, 6344, 6342
3231, 6281, 6283, 6347, 6345, 6280, 6282, 6346, 6344
3232, 6283, 6285, 6349, 6347, 6282, 6284, 6348, 6346
3233, 5325, 6287, 6351, 5389, 5324, 6286, 6350, 5388
3234, 6287, 6289, 6353, 6351, 6286, 6288, 6352, 6350
3235, 6289, 6291, 6355, 6353, 6288, 6290, 6354, 6352
3236, 6291, 6293, 6357, 6355, 6290, 6292, 6356, 6354
3237, 6293, 6295, 6359, 6357, 6292, 6294, 6358, 6356
3238, 6295, 6297, 6361, 6359, 6294, 6296, 6360, 6358
3239, 6297, 6299, 6363, 6361, 6296, 6298, 6362, 6360
3240, 6299, 6301, 6365, 6363, 6298, 6300, 6364, 6362
3241, 6301, 6303, 6367, 6365, 6300, 6302, 6366, 6364
3242, 6303, 6305, 6369, 6367, 6302, 6304, 6368, 6366
3243, 6305, 6307, 6371, 6369, 6304, 6306, 6370, 6368
3244, 6307, 6309, 6373, 6371, 6306, 6308, 6372, 6370
3245, 6309, 6311, 6375, 6373, 6308, 6310, 6374, 6372
3246, 6311, 6313, 6377, 6375, 6310, 6312, 6376, 6374
3247, 6313, 6315, 6379, 6377, 6312, 6314, 6378, 6376
3248, 6315, 6317, 6381, 6379, 6314, 6316, 6380, 6378
3249, 6317, 6319, 6383, 6381, 6316, 6318, 6382, 6380
3250, 6319, 6321, 6385, 6383, 6318, 6320, 6384, 6382
3251, 6321, 6323, 6387, 6385, 6320, 6322, 6386, 6384
3252, 6323, 6325, 6389, 6387, 6322, 6324, 6388, 6386
3253, 6325, 6327, 6391, 6389, 6324, 6326, 6390, 6388
3254, 6327, 6329, 6393, 6391, 6326, 6328, 6392, 6390
3255, 6329, 6331, 6395, 6393, 6328, 6330, 6394, 6392
3256, 6331, 6333, 6397, 6395, 6330, 6332, 6396, 6394
3257, 6333, 6335, 6399, 6397, 6332, 6334, 6398, 6396
3258, 6335, 6337, 6401, 6399, 6334, 6336, 6400, 6398
3259, 6337, 6339, 6403, 6401, 6336, 6338, 6402, 6400
3260, 6339, 6341, 6405, 6403, 6338, 6340, 6404, 6402
3261, 6341, 6343, 6407, 6405, 6340, 6342, 6406, 6404
3262, 6343, 6345, 6409, 6407, 6342, 6344, 6408, 6406
3263, 6345, 6347, 6411, 6409, 6344, 6346, 6410, 6408
3264, 6347, 6349, 6413, 6411, 6346, 6348, 6412, 6410
3265, 5389, 6351, 6415, 5453, 5388, 6350, 6414, 5452
3266, 6351, 6353, 6417, 6415, 6350, 6352, 6416, 6414
3267, 6353, 6355, 6419, 6417, 6352, 6354, 6418, 6416
3268, 6355, 6357, 6421, 6419, 6354, 6356, 6420, 6418
3269, 6357, 6359, 6423, 6421, 6356, 6358, 6422, 6420
3270, 6359, 6361, 6425, 6423, 6358, 6360, 6424, 6422
3271, 6361, 6363, 6427, 6425, 6360, 6362, 6426, 6424
3272, 6363, 6365, 6429, 6427, 6362, 6364, 6428, 6426
3273, 6365, 6367, 6431, 6429, 6364, 6366, 6430, 6428
3274, 6367, 6369, 6433, 6431, 6366, 6368, 6432, 6430
3275, 6369, 6371, 6435, 6433, 6368, 6370, 6434, 6432
3276, 6371, 6373, 6437, 6435, 6370, 6372, 6436, 6434
3277, 6373, 6375, 6439, 6437, 6372, 6374, 6438, 6436
3278, 6375, 6377, 6441, 6439, 6374, 6376, 6440, 6438
3279, 6377, 6379, 6443, 6441, 6376, 6378, 6442, 6440
3280, 6379, 6381, 6445, 6443, 6378, 6380, 6444, 6442
3281, 6381, 6383, 6447, 6445, 6380, 6382, 6446, 6444
3282, 6383, 6385, 6449, 6447, 6382, 6384, 6448, 6446
3283, 6385, 6387, 6451, 6449, 6384, 6386, 6450, 6448
3284, 6387, 6389, 6453, 6451, 6386, 6388, 6452, 6450
3285, 6389, 6391, 6455, 6453, 6388, 6390, 6454, 6452
3286, 6391, 6393, 6457, 6455, 6390, 6392, 6456, 6454
3287, 6393, 6395, 6459, 6457, 6392, 6394, 6458, 6456
3288, 6395, 6397, 6461, 6459, 6394, 6396, 6460, 6458
3289, 6397, 6399, 6463, 6461, 6396, 6398, 6462, 6460
3290, 6399, 6401, 6465, 6463, 6398, 6400, 6464, 6462
3291, 6401, 6403, 6467, 6465, 6400, 6402, 6466, 6464
3292, 6403, 6405, 6469, 6467, 6402, 6404, 6468, 6466
3293, 6405, 6407, 6471, 6469, 6404, 6406, 6470, 6468
3294, 6407, 6409, 6473, 6471, 6406, 6408, 6472, 6470
3295, 6409, 6411, 6475, 6473, 6408, 6410, 6474, 6472
3296, 6411, 6413, 6477, 6475, 6410, 6412, 6476, 6474
3297, 5453, 6415, 6479, 5517, 5452, 6414, 6478, 5516
3298, 6415, 6417, 6481, 6479, 6414, 6416, 6480, 6478
3299, 6417, 6419, 6483, 6481, 6416, 6418, 6482, 6480
3300, 6419, 6421, 6485, 6483, 6418, 6420, 6484, 6482
3301, 6421, 6423, 6487, 6485, 6420, 6422, 6486, 6484
3302, 6423, 6425, 6489, 6487, 6422, 6424, 6488, 6486
3303, 6425, 6427, 6491, 6489, 6424, 6426, 6490, 6488
3304, 6427, 6429, 6493, 6491, 6426, 6428, 6492, 6490
3305, 6429, 6431, 6495, 6493, 6428, 6430, 6494, 6492
3306, 6431, 6433, 6497, 6495, 6430, 6432, 6496, 6494
3307, 6433, 6435, 6499, 6497, 6432, 6434, 6498, 6496
3308, 6435, 6437, 6501, 6499, 6434, 6436, 6500, 6498
3309, 6437, 6439, 6503, 6501, 6436, 6438, 6502, 6500
3310, 6439, 6441, 6505, 6503, 6438, 6440, 6504, 6502
3311, 6441, 6443, 6507, 6505, 6440, 6442, 6506, 6504
3312, 6443, 6445, 6509, 6507, 6442, 6444, 6508, 6506
3313, 6445, 6447, 6511, 6509, 6444, 6446, 6510, 6508
3314, 6447, 6449, 6513, 6511, 6446, 6448, 6512, 6510
3315, 6449, 6451, 6515, 6513, 6448, 6450, 6514, 6512
3316, 6451, 6453, 6517, 6515, 6450, 6452, 6516, 6514
3317, 6453, 6455, 6519, 6517, 6452, 6454, 6518, 6516
3318, 6455, 6457, 6521, 6519, 6454, 6456, 6520, 6518
3319, 6457, 6459, 6523, 6521, 6456, 6458, 6522, 6520
3320, 6459, 6461, 6525, 6523, 6458, 6460, 6524, 6522
3321, 6461, 6463, 6527, 6525, 6460, 6462, 6526, 6524
3322, 6463, 6465, 6529, 6527, 6462, 6464, 6528, 6526
3323, 6465, 6467, 6531, 6529, 6464, 6466, 6530, 6528
3324, 6467, 6469, 6533, 6531, 6466, 6468, 6532, 6530
3325, 6469, 6471, 6535, 6533, 6468, 6470, 6534, 6532
3326, 6471, 6473, 6537, 6535, 6470, 6472, 6536, 6534
3327, 6473, 6475, 6539, 6537, 6472, 6474, 6538, 6536
3328, 6475, 6477, 6541, 6539, 6474, 6476, 6540, 6538
3329, 5517, 6479, 6543, 5581, 5516, 6478, 6542, 5580
3330, 6479, 6481, 6545, 6543, 6478, 6480, 6544, 6542
3331, 6481, 6483, 6547, 6545, 6480, 6482, 6546, 6544
3332, 6483, 6485, 6549, 6547, 6482, 6484, 6548, 6546
3333, 6485, 6487, 6551, 6549, 6484, 6486, 6550, 6548
3334, 6487, 6489, 6553, 6551, 6486, 6488, 6552, 6550
3335, 6489, 6491, 6555, 6553, 6488, 6490, 6554, 6552
3336, 6491, 6493, 6557, 6555, 6490, 6492, 6556, 6554
3337, 6493, 6495, 6559, 6557, 6492, 6494, 6558, 6556
3338, 6495, 6497, 6561, 6559, 6494, 6496, 6560, 6558
3339, 6497, 6499, 6563, 6561, 6496, 6498, 6562, 6560
3340, 6499, 6501, 6565, 6563, 6498, 6500, 6564, 6562
3341, 6501, 6503, 6567, 6565, 6500, 6502, 6566, 6564
3342, 6503, 6505, 6569, 6567, 6502, 6504, 6568, 6566
3343, 6505, 6507, 6571, 6569, 6504, 6506, 6570, 6568
3344, 6507, 6509, 6573, 6571, 6506, 6508, 6572, 6570
3345, 6509, 6511, 6575, 6573, 6508, 6510, 6574, 6572
3346, 6511, 6513, 6577, 6575, 6510, 6512, 6576, 6574
3347, 6513, 6515, 6579, 6577, 6512, 6514, 6578, 6576
3348, 6515, 6517, 6581, 6579, 6514, 6516, 6580, 6578
3349, 6517, 6519, 6583, 6581, 6516, 6518, 6582, 6580
3350, 6519, 6521, 6585, 6583, 6518, 6520, 6584, 6582
3351, 6521, 6523, 6587, 6585, 6520, 6522, 6586, 6584
3352, 6523, 6525, 6589, 6587, 6522, 6524, 6588, 6586
3353, 6525, 6527, 6591, 6589, 6524, 6526, 6590, 6588
3354, 6527, 6529, 6593, 6591, 6526, 6528, 6592, 6590
3355, 6529, 6531, 6595, 6593, 6528, 6530, 6594, 6592
3356, 6531, 6533, 6597, 6595, 6530, 6532, 6596, 6594
3357, 6533, 6535, 6599, 6597, 6532, 6534, 6598, 6596
3358, 6535, 6537, 6601, 6599, 6534, 6536, 6600, 6598
3359, 6537, 6539, 6603, 6601, 6536, 6538, 6602, 6600
3360, 6539, 6541, 6605, 6603, 6538, 6540, 6604, 6602
3361, 3436, 3438, 6606, 3566, 3437, 3439, 6607, 3567
3362, 3438, 3440, 6608, 6606, 3439, 3441, 6609, 6607
3363, 3440, 3442, 6610, 6608, 3441, 3443, 6611, 6609
3364, 3442, 3444, 6612, 6610, 3443, 3445, 6613, 6611
3365, 3444, 3446, 6614, 6612, 3445, 3447, 6615, 6613
3366, 3446, 3448, 6616, 6614, 3447, 3449, 6617, 6615
3367, 3448, 3450, 6618, 6616, 3449, 3451, 6619, 6617
3368, 3450, 3452, 6620, 6618, 3451, 3453, 6621, 6619
3369, 3452, 3454, 6622, 6620, 3453, 3455, 6623, 6621
3370, 3454, 3456, 6624, 6622, 3455, 3457, 6625, 6623
3371, 3456, 3458, 6626, 6624, 3457, 3459, 6627, 6625
3372, 3458, 3460, 6628, 6626, 3459, 3461, 6629, 6627
3373, 3460, 3462, 6630, 6628, 3461, 3463, 6631, 6629
3374, 3462, 3464, 6632, 6630, 3463, 3465, 6633, 6631
3375, 3464, 3466, 6634, 6632, 3465, 3467, 6635, 6633
3376, 3466, 3468, 6636, 6634, 3467, 3469, 6637, 6635
3377, 3468, 3470, 6638, 6636, 3469, 3471, 6639, 6637
3378, 3470, 3472, 6640, 6638, 3471, 3473, 6641, 6639
3379, 3472, 3474, 6642, 6640, 3473, 3475, 6643, 6641
3380, 3474, 3476, 6644, 6642, 3475, 3477, 6645, 6643
3381, 3476, 3478, 6646, 6644, 3477, 3479, 6647, 6645
3382, 3478, 3480, 6648, 6646, 3479, 3481, 6649, 6647
3383, 3480, 3482, 6650, 6648, 3481, 3483, 6651, 6649
3384, 3482, 3484, 6652, 6650, 3483, 3485, 6653, 6651
3385, 3484, 3486, 6654, 6652, 3485, 3487, 6655, 6653
3386, 3486, 3488, 6656, 6654, 3487, 3489, 6657, 6655
3387, 3488, 3490, 6658, 6656, 3489, 3491, 6659, 6657
3388, 3490, 3492, 6660, 6658, 3491, 3493, 6661, 6659
3389, 3492, 3494, 6662, 6660, 3493, 3495, 6663, 6661
3390, 3494, 3496, 6664, 6662, 3495, 3497, 6665, 6663
3391, 3496, 3498, 6666, 6664, 3497, 3499, 6667, 6665
3392, 3498, 3500, 5644, 6666, 3499, 3501, 5645, 6667
3393, 3566, 6606, 6668, 3632, 3567, 6607, 6669, 3633
3394, 6606, 6608, 6670, 6668, 6607, 6609, 6671, 6669
3395, 6608, 6610, 6672, 6670, 6609, 6611, 6673, 6671
3396, 6610, 6612, 6674, 6672, 6611, 6613, 6675, 6673
3397, 6612, 6614, 6676, 6674, 6613, 6615, 6677, 6675
3398, 6614, 6616, 6678, 6676, 6615, 6617, 6679, 6677
3399, 6616, 6618, 6680, 6678, 6617, 6619, 6681, 6679
3400, 6618, 6620, 6682, 6680, 6619, 6621, 6683, 6681
3401, 6620, 6622, 6684, 6682, 6621, 6623, 6685, 6683
3402, 6622, 6624, 6686, 6684, 6623, 6625, 6687, 6685
3403, 6624, 6626, 6688, 6686, 6625, 6627, 6689, 6687
3404, 6626, 6628, 6690, 6688, 6627, 6629, 6691, 6689
3405, 6628, 6630, 6692, 6690, 6629, 6631, 6693, 6691
3406, 6630, 6632, 6694, 6692, 6631, 6633, 6695, 6693
3407, 6632, 6634, 6696, 6694, 6633, 6635, 6697, 6695
3408, 6634, 6636, 6698, 6696, 6635, 6637, 6699, 6697
3409, 6636, 6638, 6700, 6698, 6637, 6639, 6701, 6699
3410, 6638, 6640, 6702, 6700, 6639, 6641, 6703, 6701
3411, 6640, 6642, 6704, 6702, 6641, 6643, 6705, 6703
3412, 6642, 6644, 6706, 6704, 6643, 6645, 6707, 6705
3413, 6644, 6646, 6708, 6706, 6645, 6647, 6709, 6707
3414, 6646, 6648, 6710, 6708, 6647, 6649, 6711, 6709
3415, 6648, 6650, 6712, 6710, 6649, 6651, 6713, 6711
3416, 6650, 6652, 6714, 6712, 6651, 6653, 6715, 6713
3417, 6652, 6654, 6716, 6714, 6653, 6655, 6717, 6715
3418, 6654, 6656, 6718, 6716, 6655, 6657, 6719, 6717
3419, 6656, 6658, 6720, 6718, 6657, 6659, 6721, 6719
3420, 6658, 6660, 6722, 6720, 6659, 6661, 6723, 6721
3421, 6660, 6662, 6724, 6722, 6661, 6663, 6725, 6723
3422, 6662, 6664, 6726, 6724, 6663, 6665, 6727, 6725
3423, 6664, 6666, 6728, 6726, 6665, 6667, 6729, 6727
3424, 6666, 5644, 5708, 6728, 6667, 5645, 5709, 6729
3425, 3632, 6668, 6730, 3698, 3633, 6669, 6731, 3699
3426, 6668, 6670, 6732, 6730, 6669, 6671, 6733, 6731
3427, 6670, 6672, 6734, 6732, 6671, 6673, 6735, 6733
3428, 6672, 6674, 6736, 6734, 6673, 6675, 6737, 6735
3429, 6674, 6676, 6738, 6736, 6675, 6677, 6739, 6737
3430, 6676, 6678, 6740, 6738, 6677, 6679, 6741, 6739
3431, 6678, 6680, 6742, 6740, 6679, 6681, 6743, 6741
3432, 6680, 6682, 6744, 6742, 6681, 6683, 6745, 6743
3433, 6682, 6684, 6746, 6744, 6683, 6685, 6747, 6745
3434, 6684, 6686, 6748, 6746, 6685, 6687, 6749, 6747
3435, 6686, 6688, 6750, 6748, 6687, 6689, 6751, 6749
3436, 6688, 6690, 6752, 6750, 6689, 6691, 6753, 6751
3437, 6690, 6692, 6754, 6752, 6691, 6693, 6755, 6753
3438, 6692, 6694, 6756, 6754, 6693, 6695, 6757, 6755
3439, 6694, 6696, 6758, 6756, 6695, 6697, 6759, 6757
3440, 6696, 6698, 6760, 6758, 6697, 6699, 6761, 6759
3441, 6698, 6700, 6762, 6760, 6699, 6701, 6763, 6761
3442, 6700, 6702, 6764, 6762, 6701, 6703, 6765, 6763
3443, 6702, 6704, 6766, 6764, 6703, 6705, 6767, 6765
3444, 6704, 6706, 6768, 6766, 6705, 6707, 6769, 6767
3445, 6706, 6708, 6770, 6768, 6707, 6709, 6771, 6769
3446, 6708, 6710, 6772, 6770, 6709, 6711, 6773, 6771
3447, 6710, 6712, 6774, 6772, 6711, 6713, 6775, 6773
3448, 6712, 6714, 6776, 6774, 6713, 6715, 6777, 6775
3449, 6714, 6716, 6778, 6776, 6715, 6717, 6779, 6777
3450, 6716, 6718, 6780, 6778, 6717, 6719, 6781, 6779
3451, 6718, 6720, 6782, 6780, 6719, 6721, 6783, 6781
3452, 6720, 6722, 6784, 6782, 6721, 6723, 6785, 6783
3453, 6722, 6724, 6786, 6784, 6723, 6725, 6787, 6785
3454, 6724, 6726, 6788, 6786, 6725, 6727, 6789, 6787
3455, 6726, 6728, 6790, 6788, 6727, 6729, 6791, 6789
3456, 6728, 5708, 5772, 6790, 6729, 5709, 5773, 6791
3457, 3698, 6730, 6792, 3764, 3699, 6731, 6793, 3765
3458, 6730, 6732, 6794, 6792, 6731, 6733, 6795, 6793
3459, 6732, 6734, 6796, 6794, 6733, 6735, 6797, 6795
3460, 6734, 6736, 6798, 6796, 6735, 6737, 6799, 6797
3461, 6736, 6738, 6800, 6798, 6737, 6739, 6801, 6799
3462, 6738, 6740, 6802, 6800, 6739, 6741, 6803, 6801
3463, 6740, 6742, 6804, 6802, 6741, 6743, 6805, 6803
3464, 6742, 6744, 6806, 6804, 6743, 6745, 6807, 6805
3465, 6744, 6746, 6808, 6806, 6745, 6747, 6809, 6807
3466, 6746, 6748, 6810, 6808, 6747, 6749, 6811, 6809
3467, 6748, 6750, 6812, 6810, 6749, 6751, 6813, 6811
3468, 6750, 6752, 6814, 6812, 6751, 6753, 6815, 6813
3469, 6752, 6754, 6816, 6814, 6753, 6755, 6817, 6815
3470, 6754, 6756, 6818, 6816, 6755, 6757, 6819, 6817
3471, 6756, 6758, 6820, 6818, 6757, 6759, 6821, 6819
3472, 6758, 6760, 6822, 6820, 6759, 6761, 6823, 6821
3473, 6760, 6762, 6824, 6822, 6761, 6763, 6825, 6823
3474, 6762, 6764, 6826, 6824, 6763, 6765, 6827, 6825
3475, 6764, 6766, 6828, 6826, 6765, 6767, 6829, 6827
3476, 6766, 6768, 6830, 6828, 6767, 6769, 6831, 6829
3477, 6768, 6770, 6832, 6830, 6769, 6771, 6833, 6831
3478, 6770, 6772, 6834, 6832, 6771, 6773, 6835, 6833
3479, 6772, 6774, 6836, 6834, 6773, 6775, 6837, 6835
3480, 6774, 6776, 6838, 6836, 6775, 6777, 6839, 6837
3481, 6776, 6778, 6840, 6838, 6777, 6779, 6841, 6839
3482, 6778, 6780, 6842, 6840, 6779, 6781, 6843, 6841
3483, 6780, 6782, 6844, 6842, 6781, 6783, 6845, 6843
3484, 6782, 6784, 6846, 6844, 6783, 6785, 6847, 6845
3485, 6784, 6786, 6848, 6846, 6785, 6787, 6849, 6847
3486, 6786, 6788, 6850, 6848, 6787, 6789, 6851, 6849
3487, 6788, 6790, 6852, 6850, 6789, 6791, 6853, 6851
3488, 6790, 5772, 5836, 6852, 6791, 5773, 5837, 6853
3489, 3764, 6792, 6854, 3830, 3765, 6793, 6855, 3831
3490, 6792, 6794, 6856, 6854, 6793, 6795, 6857, 6855
3491, 6794, 6796, 6858, 6856, 6795, 6797, 6859, 6857
3492, 6796, 6798, 6860, 6858, 6797, 6799, 6861, 6859
3493, 6798, 6800, 6862, 6860, 6799, 6801, 6863, 6861
3494, 6800, 6802, 6864, 6862, 6801, 6803, 6865, 6863
3495, 6802, 6804, 6866, 6864, 6803, 6805, 6867, 6865
3496, 6804, 6806, 6868, 6866, 6805, 6807, 6869, 6867
3497, 6806, 6808, 6870, 6868, 6807, 6809, 6871, 6869
3498, 6808, 6810, 6872, 6870, 6809, 6811, 6873, 6871
3499, 6810, 6812, 6874, 6872, 6811, 6813, 6875, 6873
3500, 6812, 6814, 6876, 6874, 6813, 6815, 6877, 6875
3501, 6814, 6816, 6878, 6876, 6815, 6817, 6879, 6877
3502, 6816, 6818, 6880, 6878, 6817, 6819, 6881, 6879
3503, 6818, 6820, 6882, 6880, 6819, 6821, 6883, 6881
3504, 6820, 6822, 6884, 6882, 6821, 6823, 6885, 6883
3505, 6822, 6824, 6886, 6884, 6823, 6825, 6887, 6885
3506, 6824, 6826, 6888, 6886, 6825, 6827, 6889, 6887
3507, 6826, 6828, 6890, 6888, 6827, 6829, 6891, 6889
3508, 6828, 6830, 6892, 6890, 6829, 6831, 6893, 6891
3509, 6830, 6832, 6894, 6892, 6831, 6833, 6895, 6893
3510, 6832, 6834, 6896, 6894, 6833, 6835, 6897, 6895
3511, 6834, 6836, 6898, 6896, 6835, 6837, 6899, 6897
3512, 6836, 6838, 6900, 6898, 6837, 6839, 6901, 6899
3513, 6838, 6840, 6902, 6900, 6839, 6841, 6903, 6901
3514, 6840, 6842, 6904, 6902, 6841, 6843, 6905, 6903
3515, 6842, 6844, 6906, 6904, 6843, 6845, 6907, 6905
3516, 6844, 6846, 6908, 6906, 6845, 6847, 6909, 6907
3517, 6846, 6848, 6910, 6908, 6847, 6849, 6911, 6909
3518, 6848, 6850, 6912, 6910, 6849, 6851, 6913, 6911
3519, 6850, 6852, 6914, 6912, 6851, 6853, 6915, 6913
3520, 6852, 5836, 5900, 6914, 6853, 5837, 5901, 6915
3521, 3830, 6854, 6916, 3896, 3831, 6855, 6917, 3897
3522, 6854, 6856, 6918, 6916, 6855, 6857, 6919, 6917
3523, 6856, 6858, 6920, 6918, 6857, 6859, 6921, 6919
3524, 6858, 6860, 6922, 6920, 6859, 6861, 6923, 6921
3525, 6860, 6862, 6924, 6922, 6861, 6863, 6925, 6923
3526, 6862, 6864, 6926, 6924, 6863, 6865, 6927, 6925
3527, 6864, 6866, 6928, 6926, 6865, 6867, 6929, 6927
3528, 6866, 6868, 6930, 6928, 6867, 6869, 6931, 6929
3529, 6868, 6870, 6932, 6930, 6869, 6871, 6933, 6931
3530, 6870, 6872, 6934, 6932, 6871, 6873, 6935, 6933
3531, 6872, 6874, 6936, 6934, 6873, 6875, 6937, 6935
3532, 6874, 6876, 6938, 6936, 6875, 6877, 6939, 6937
3533, 6876, 6878, 6940, 6938, 6877, 6879, 6941, 6939
3534, 6878, 6880, 6942, 6940, 6879, 6881, 6943, 6941
3535, 6880, 6882, 6944, 6942, 6881, 6883, 6945, 6943
3536, 6882, 6884, 6946, 6944, 6883, 6885, 6947, 6945
3537, 6884, 6886, 6948, 6946, 6885, 6887, 6949, 6947
3538, 6886, 6888, 6950, 6948, 6887, 6889, 6951, 6949
3539, 6888, 6890, 6952, 6950, 6889, 6891, 6953, 6951
3540, 6890, 6892, 6954, 6952, 6891, 6893, 6955, 6953
3541, 6892, 6894, 6956, 6954, 6893, 6895, 6957, 6955
3542, 6894, 6896, 6958, 6956, 6895, 6897, 6959, 6957
3543, 6896, 6898, 6960, 6958, 6897, 6899, 6961, 6959
3544, 6898, 6900, 6962, 6960, 6899, 6901, 6963, 6961
3545, 6900, 6902, 6964, 6962, 6901, 6903, 6965, 6963
3546, 6902, 6904, 6966, 6964, 6903, 6905, 6967, 6965
3547, 6904, 6906, 6968, 6966, 6905, 6907, 6969, 6967
3548, 6906, 6908, 6970, 6968, 6907, 6909, 6971, 6969
3549, 6908, 6910, 6972, 6970, 6909, 6911, 6973, 6971
3550, 6910, 6912, 6974, 6972, 6911, 6913, 6975, 6973
3551, 6912, 6914, 6976, 6974, 6913, 6915, 6977, 6975
3552, 6914, 5900, 5964, 6976, 6915, 5901, 5965, 6977
3553, 3896, 6916, 6978, 3962, 3897, 6917, 6979, 3963
3554, 6916, 6918, 6980, 6978, 6917, 6919, 6981, 6979
3555, 6918, 6920, 6982, 6980, 6919, 6921, 6983, 6981
3556, 6920, 6922, 6984, 6982, 6921, 6923, 6985, 6983
3557, 6922, 6924, 6986, 6984, 6923, 6925, 6987, 6985
3558, 6924, 6926, 6988, 6986, 6925, 6927, 6989, 6987
3559, 6926, 6928, 6990, 6988, 6927, 6929, 6991, 6989
3560, 6928, 6930, 6992, 6990, 6929, 6931, 6993, 6991
3561, 6930, 6932, 6994, 6992, 6931, 6933, 6995, 6993
3562, 6932, 6934, 6996, 6994, 6933, 6935, 6997, 6995
3563, 6934, 6936, 6998, 6996, 6935, 6937, 6999, 6997
3564, 6936, 6938, 7000, 6998, 6937, 6939, 7001, 6999
3565, 6938, 6940, 7002, 7000, 6939, 6941, 7003, 7001
3566, 6940, 6942, 7004, 7002, 6941, 6943, 7005, 7003
3567, 6942, 6944, 7006, 7004, 6943, 6945, 7007, 7005
3568, 6944, 6946, 7008, 7006, 6945, 6947, 7009, 7007
3569, 6946, 6948, 7010, 7008, 6947, 6949, 7011, 7009
3570, 6948, 6950, 7012, 7010, 6949, 6951, 7013, 7011
3571, 6950, 6952, 7014, 7012, 6951, 6953, 7015, 7013
3572, 6952, 6954, 7016, 7014, 6953, 6955, 7017, 7015
3573, 6954, 6956, 7018, 7016, 6955, 6957, 7019, 7017
3574, 6956, 6958, 7020, 7018, 6957, 6959, 7021, 7019
3575, 6958, 6960, 7022, 7020, 6959, 6961, 7023, 7021
3576, 6960, 6962, 7024, 7022, 6961, 6963, 7025, 7023
3577, 6962, 6964, 7026, 7024, 6963, 6965, 7027, 7025
3578, 6964, 6966, 7028, 7026, 6965, 6967, 7029, 7027
3579, 6966, 6968, 7030, 7028, 6967, 6969, 7031, 7029
3580, 6968, 6970, 7032, 7030, 6969, 6971, 7033, 7031
3581, 6970, 6972, 7034, 7032, 6971, 6973, 7035, 7033
3582, 6972, 6974, 7036, 7034, 6973, 6975, 7037, 7035
3583, 6974, 6976, 7038, 7036, 6975, 6977, 7039, 7037
3584, 6976, 5964, 6028, 7038, 6977, 5965, 6029, 7039
3585, 3962, 6978, 7040, 4028, 3963, 6979, 7041, 4029
3586, 6978, 6980, 7042, 7040, 6979, 6981, 7043, 7041
3587, 6980, 6982, 7044, 7042, 6981, 6983, 7045, 7043
3588, 6982, 6984, 7046, 7044, 6983, 6985, 7047, 7045
3589, 6984, 6986, 7048, 7046, 6985, 6987, 7049, 7047
3590, 6986, 6988, 7050, 7048, 6987, 6989, 7051, 7049
3591, 6988, 6990, 7052, 7050, 6989, 6991, 7053, 7051
3592, 6990, 6992, 7054, 7052, 6991, 6993, 7055, 7053
3593, 6992, 6994, 7056, 7054, 6993, 6995, 7057, 7055
3594, 6994, 6996, 7058, 7056, 6995, 6997, 7059, 7057
3595, 6996, 6998, 7060, 7058, 6997, 6999, 7061, 7059
3596, 6998, 7000, 7062, 7060, 6999, 7001, 7063, 7061
3597, 7000, 7002, 7064, 7062, 7001, 7003, 7065, 7063
3598, 7002, 7004, 7066, 7064, 7003, 7005, 7067, 7065
3599, 7004, 7006, 7068, 7066, 7005, 7007, 7069, 7067
3600, 7006, 7008, 7070, 7068, 7007, 7009, 7071, 7069
3601, 7008, 7010, 7072, 7070, 7009, 7011, 7073, 7071
3602, 7010, 7012, 7074, 7072, 7011, 7013, 7075, 7073
3603, 7012, 7014, 7076, 7074, 7013, 7015, 7077, 7075
3604, 7014, 7016, 7078, 7076, 7015, 7017, 7079, 7077
3605, 7016, 7018, 7080, 7078, 7017, 7019, 7081, 7079
3606, 7018, 7020, 7082, 7080, 7019, 7021, 7083, 7081
3607, 7020, 7022, 7084, 7082, 7021, 7023, 7085, 7083
3608, 7022, 7024, 7086, 7084, 7023, 7025, 7087, 7085
3609, 7024, 7026, 7088, 7086, 7025, 7027, 7089, 7087
3610, 7026, 7028, 7090, 7088, 7027, 7029, 7091, 7089
3611, 7028, 7030, 7092, 7090, 7029, 7031, 7093, 7091
3612, 7030, 7032, 7094, 7092, 7031, 7033, 7095, 7093
3613, 7032, 7034, 7096, 7094, 7033, 7035, 7097, 7095
3614, 7034, 7036, 7098, 7096, 7035, 7037, 7099, 7097
3615, 7036, 7038, 7100, 7098, 7037, 7039, 7101, 7099
3616, 7038, 6028, 6092, 7100, 7039, 6029, 6093, 7101
3617, 4028, 7040, 7102, 4094, 4029, 7041, 7103, 4095
3618, 7040, 7042, 7104, 7102, 7041, 7043, 7105, 7103
3619, 7042, 7044, 7106, 7104, 7043, 7045, 7107, 7105
3620, 7044, 7046, 7108, 7106, 7045, 7047, 7109, 7107
3621, 7046, 7048, 7110, 7108, 7047, 7049, 7111, 7109
3622, 7048, 7050, 7112, 7110, 7049, 7051, 7113, 7111
3623, 7050, 7052, 7114, 7112, 7051, 7053, 7115, 7113
3624, 7052, 7054, 7116, 7114, 7053, 7055, 7117, 7115
3625, 7054, 7056, 7118, 7116, 7055, 7057, 7119, 7117
3626, 7056, 7058, 7120, 7118, 7057, 7059, 7121, 7119
3627, 7058, 7060, 7122, 7120, 7059, 7061, 7123, 7121
3628, 7060, 7062, 7124, 7122, 7061, 7063, 7125, 7123
3629, 7062, 7064, 7126, 7124, 7063, 7065, 7127, 7125
3630, 7064, 7066, 7128, 7126, 7065, 7067, 7129, 7127
3631, 7066, 7068, 7130, 7128, 7067, 7069, 7131, 7129
3632, 7068, 7070, 7132, 7130, 7069, 7071, 7133, 7131
3633, 7070, 7072, 7134, 7132, 7071, 7073, 7135, 7133
3634, 7072, 7074, 7136, 7134, 7073, 7075, 7137, 7135
3635, 7074, 7076, 7138, 7136, 7075, 7077, 7139, 7137
3636, 7076, 7078, 7140, 7138, 7077, 7079, 7141, 7139
3637, 7078, 7080, 7142, 7140, 7079, 7081, 7143, 7141
3638, 7080, 7082, 7144, 7142, 7081, 7083, 7145, 7143
3639, 7082, 7084, 7146, 7144, 7083, 7085, 7147, 7145
3640, 7084, 7086, 7148, 7146, 7085, 7087, 7149, 7147
3641, 7086, 7088, 7150, 7148, 7087, 7089, 7151, 7149
3642, 7088, 7090, 7152, 7150, 7089, 7091, 7153, 7151
3643, 7090, 7092, 7154, 7152, 7091, 7093, 7155, 7153
3644, 7092, 7094, 7156, 7154, 7093, 7095, 7157, 7155
3645, 7094, 7096, 7158, 7156, 7095, 7097, 7159, 7157
3646, 7096, 7098, 7160, 7158, 7097, 7099, 7161, 7159
3647, 7098, 7100, 7162, 7160, 7099, 7101, 7163, 7161
3648, 7100, 6092, 6156, 7162, 7101, 6093, 6157, 7163
3649, 4094, 7102, 7164, 4160, 4095, 7103, 7165, 4161
3650, 7102, 7104, 7166, 7164, 7103, 7105, 7167, 7165
3651, 7104, 7106, 7168, 7166, 7105, 7107, 7169, 7167
3652, 7106, 7108, 7170, 7168, 7107, 7109, 7171, 7169
3653, 7108, 7110, 7172, 7170, 7109, 7111, 7173, 7171
3654, 7110, 7112, 7174, 7172, 7111, 7113, 7175, 7173
3655, 7112, 7114, 7176, 7174, 7113, 7115, 7177, 7175
3656, 7114, 7116, 7178, 7176, 7115, 7117, 7179, 7177
3657, 7116, 7118, 7180, 7178, 7117, 7119, 7181, 7179
3658, 7118, 7120, 7182, 7180, 7119, 7121, 7183, 7181
3659, 7120, 7122, 7184, 7182, 7121, 7123, 7185, 7183
3660, 7122, 7124, 7186, 7184, 7123, 7125, 7187, 7185
3661, 7124, 7126, 7188, 7186, 7125, 7127, 7189, 7187
3662, 7126, 7128, 7190, 7188, 7127, 7129, 7191, 7189
3663, 7128, 7130, 7192, 7190, 7129, 7131, 7193, 7191
3664, 7130, 7132, 7194, 7192, 7131, 7133, 7195, 7193
3665, 7132, 7134, 7196, 7194, 7133, 7135, 7197, 7195
3666, 7134, 7136, 7198, 7196, 7135, 7137, 7199, 7197
3667, 7136, 7138, 7200, 7198, 7137, 7139, 7201, 7199
3668, 7138, 7140, 7202, 7200, 7139, 7141, 7203, 7201
3669, 7140, 7142, 7204, 7202, 7141, 7143, 7205, 7203
3670, 7142, 7144, 7206, 7204, 7143, 7145, 7207, 7205
3671, 7144, 7146, 7208, 7206, 7145, 7147, 7209, 7207
3672, 7146, 7148, 7210, 7208, 7147, 7149, 7211, 7209
3673, 7148, 7150, 7212, 7210, 7149, 7151, 7213, 7211
3674, 7150, 7152, 7214, 7212, 7151, 7153, 7215, 7213
3675, 7152, 7154, 7216, 7214, 7153, 7155, 7217, 7215
3676, 7154, 7156, 7218, 7216, 7155, 7157, 7219, 7217
3677, 7156, 7158, 7220, 7218, 7157, 7159, 7221, 7219
3678, 7158, 7160, 7222, 7220, 7159, 7161, 7223, 7221
3679, 7160, 7162, 7224, 7222, 7161, 7163, 7225, 7223
3680, 7162, 6156, 6220, 7224, 7163, 6157, 6221, 7225
3681, 4160, 7164, 7226, 4226, 4161, 7165, 7227, 4227
3682, 7164, 7166, 7228, 7226, 7165, 7167, 7229, 7227
3683, 7166, 7168, 7230, 7228, 7167, 7169, 7231, 7229
3684, 7168, 7170, 7232, 7230, 7169, 7171, 7233, 7231
3685, 7170, 7172, 7234, 7232, 7171, 7173, 7235, 7233
3686, 7172, 7174, 7236, 7234, 7173, 7175, 7237, 7235
3687, 7174, 7176, 7238, 7236, 7175, 7177, 7239, 7237
3688, 7176, 7178, 7240, 7238, 7177, 7179, 7241, 7239
3689, 7178, 7180, 7242, 7240, 7179, 7181, 7243, 7241
3690, 7180, 7182, 7244, 7242, 7181, 7183, 7245, 7243
3691, 7182, 7184, 7246, 7244, 7183, 7185, 7247, 7245
3692, 7184, 7186, 7248, 7246, 7185, 7187, 7249, 7247
3693, 7186, 7188, 7250, 7248, 7187, 7189, 7251, 7249
3694, 7188, 7190, 7252, 7250, 7189, 7191, 7253, 7251
3695, 7190, 7192, 7254, 7252, 7191, 7193, 7255, 7253
3696, 7192, 7194, 7256, 7254, 7193, 7195, 7257, 7255
3697, 7194, 7196, 7258, 7256, 7195, 7197, 7259, 7257
3698, 7196, 7198, 7260, 7258, 7197, 7199, 7261, 7259
3699, 7198, 7200, 7262, 7260, 7199, 7201, 7263, 7261
3700, 7200, 7202, 7264, 7262, 7201, 7203, 7265, 7263
3701, 7202, 7204, 7266, 7264, 7203, 7205, 7267, 7265
3702, 7204, 7206, 7268, 7266, 7205, 7207, 7269, 7267
3703, 7206, 7208, 7270, 7268, 7207, 7209, 7271, 7269
3704, 7208, 7210, 7272, 7270, 7209, 7211, 7273, 7271
3705, 7210, 7212, 7274, 7272, 7211, 7213, 7275, 7273
3706, 7212, 7214, 7276, 7274, 7213, 7215, 7277, 7275
3707, 7214, 7216, 7278, 7276, 7215, 7217, 7279, 7277
3708, 7216, 7218, 7280, 7278, 7217, 7219, 7281, 7279
3709, 7218, 7220, 7282, 7280, 7219, 7221, 7283, 7281
3710, 7220, 7222, 7284, 7282, 7221, 7223, 7285, 7283
3711, 7222, 7224, 7286, 7284, 7223, 7225, 7287, 7285
3712, 7224, 6220, 6284, 7286, 7225, 6221, 6285, 7287
3713, 4226, 7226, 7288, 4292, 4227, 7227, 7289, 4293
3714, 7226, 7228, 7290, 7288, 7227, 7229, 7291, 7289
3715, 7228, 7230, 7292, 7290, 7229, 7231, 7293, 7291
3716, 7230, 7232, 7294, 7292, 7231, 7233, 7295, 7293
3717, 7232, 7234, 7296, 7294, 7233, 7235, 7297, 7295
3718, 7234, 7236, 7298, 7296, 7235, 7237, 7299, 7297
3719, 7236, 7238, 7300, 7298, 7237, 7239, 7301, 7299
3720, 7238, 7240, 7302, 7300, 7239, 7241, 7303, 7301
3721, 7240, 7242, 7304, 7302, 7241, 7243, 7305, 7303
3722, 7242, 7244, 7306, 7304, 7243, 7245, 7307, 7305
3723, 7244, 7246, 7308, 7306, 7245, 7247, 7309, 7307
3724, 7246, 7248, 7310, 7308, 7247, 7249, 7311, 7309
3725, 7248, 7250, 7312, 7310, 7249, 7251, 7313, 7311
3726, 7250, 7252, 7314, 7312, 7251, 7253, 7315, 7313
3727, 7252, 7254, 7316, 7314, 7253, 7255, 7317, 7315
3728, 7254, 7256, 7318, 7316, 7255, 7257, 7319, 7317
3729, 7256, 7258, 7320, 7318, 7257, 7259, 7321, 7319
3730, 7258, 7260, 7322, 7320, 7259, 7261, 7323, 7321
3731, 7260, 7262, 7324, 7322, 7261, 7263, 7325, 7323
3732, 7262, 7264, 7326, 7324, 7263, 7265, 7327, 7325
3733, 7264, 7266, 7328, 7326, 7265, 7267, 7329, 7327
3734, 7266, 7268, 7330, 7328, 7267, 7269, 7331, 7329
3735, 7268, 7270, 7332, 7330, 7269, 7271, 7333, 7331
3736, 7270, 7272, 7334, 7332, 7271, 7273, 7335, 7333
3737, 7272, 7274, 7336, 7334, 7273, 7275, 7337, 7335
3738, 7274, 7276, 7338, 7336, 7275, 7277, 7339, 7337
3739, 7276, 7278, 7340, 7338, 7277, 7279, 7341, 7339
3740, 7278, 7280, 7342, 7340, 7279, 7281, 7343, 7341
3741, 7280, 7282, 7344, 7342, 7281, 7283, 7345, 7343
3742, 7282, 7284, 7346, 7344, 7283, 7285, 7347, 7345
3743, 7284, 7286, 7348, 7346, 7285, 7287, 7349, 7347
3744, 7286, 6284, 6348, 7348, 7287, 6285, 6349, 7349
3745, 4292, 7288, 7350, 4358, 4293, 7289, 7351, 4359
3746, 7288, 7290, 7352, 7350, 7289, 7291, 7353, 7351
3747, 7290, 7292, 7354, 7352, 7291, 7293, 7355, 7353
3748, 7292, 7294, 7356, 7354, 7293, 7295, 7357, 7355
3749, 7294, 7296, 7358, 7356, 7295, 7297, 7359, 7357
3750, 7296, 7298, 7360, 7358, 7297, 7299, 7361, 7359
3751, 7298, 7300, 7362, 7360, 7299, 7301, 7363, 7361
3752, 7300, 7302, 7364, 7362, 7301, 7303, 7365, 7363
3753, 7302, 7304, 7366, 7364, 7303, 7305, 7367, 7365
3754, 7304, 7306, 7368, 7366, 7305, 7307, 7369, 7367
3755, 7306, 7308, 7370, 7368, 7307, 7309, 7371, 7369
3756, 7308, 7310, 7372, 7370, 7309, 7311, 7373, 7371
3757, 7310, 7312, 7374, 7372, 7311, 7313, 7375, 7373
3758, 7312, 7314, 7376, 7374, 7313, 7315, 7377, 7375
3759, 7314, 7316, 7378, 7376, 7315, 7317, 7379, 7377
3760, 7316, 7318, 7380, 7378, 7317, 7319, 7381, 7379
3761, 7318, 7320, 7382, 7380, 7319, 7321, 7383, 7381
3762, 7320, 7322, 7384, 7382, 7321, 7323, 7385, 7383
3763, 7322, 7324, 7386, 7384, 7323, 7325, 7387, 7385
3764, 7324, 7326, 7388, 7386, 7325, 7327, 7389, 7387
3765, 7326, 7328, 7390, 7388, 7327, 7329, 7391, 7389
3766, 7328, 7330, 7392, 7390, 7329, 7331, 7393, 7391
3767, 7330, 7332, 7394, 7392, 7331, 7333, 7395, 7393
3768, 7332, 7334, 7396, 7394, 7333, 7335, 7397, 7395
3769, 7334, 7336, 7398, 7396, 7335, 7337, 7399, 7397
3770, 7336, 7338, 7400, 7398, 7337, 7339, 7401, 7399
3771, 7338, 7340, 7402, 7400, 7339, 7341, 7403, 7401
3772, 7340, 7342, 7404, 7402, 7341, 7343, 7405, 7403
3773, 7342, 7344, 7406, 7404, 7343, 7345, 7407, 7405
3774, 7344, 7346, 7408, 7406, 7345, 7347, 7409, 7407
3775, 7346, 7348, 7410, 7408, 7347, 7349, 7411, 7409
3776, 7348, 6348, 6412, 7410, 7349, 6349, 6413, 7411
3777, 4358, 7350, 7412, 4424, 4359, 7351, 7413, 4425
3778, 7350, 7352, 7414, 7412, 7351, 7353, 7415, 7413
3779, 7352, 7354, 7416, 7414, 7353, 7355, 7417, 7415
3780, 7354, 7356, 7418, 7416, 7355, 7357, 7419, 7417
3781, 7356, 7358, 7420, 7418, 7357, 7359, 7421, 7419
3782, 7358, 7360, 7422, 7420, 7359, 7361, 7423, 7421
3783, 7360, 7362, 7424, 7422, 7361, 7363, 7425, 7423
3784, 7362, 7364, 7426, 7424, 7363, 7365, 7427, 7425
3785, 7364, 7366, 7428, 7426, 7365, 7367, 7429, 7427
3786, 7366, 7368, 7430, 7428, 7367, 7369, 7431, 7429
3787, 7368, 7370, 7432, 7430, 7369, 7371, 7433, 7431
3788, 7370, 7372, 7434, 7432, 7371, 7373, 7435, 7433
3789, 7372, 7374, 7436, 7434, 7373, 7375, 7437, 7435
3790, 7374, 7376, 7438, 7436, 7375, 7377, 7439, 7437
3791, 7376, 7378, 7440, 7438, 7377, 7379, 7441, 7439
3792, 7378, 7380, 7442, 7440, 7379, 7381, 7443, 7441
3793, 7380, 7382, 7444, 7442, 7381, 7383, 7445, 7443
3794, 7382, 7384, 7446, 7444, 7383, 7385, 7447, 7445
3795, 7384, 7386, 7448, 7446, 7385, 7387, 7449, 7447
3796, 7386, 7388, 7450, 7448, 7387, 7389, 7451, 7449
3797, 7388, 7390, 7452, 7450, 7389, 7391, 7453, 7451
3798, 7390, 7392, 7454, 7452, 7391, 7393, 7455, 7453
3799, 7392, 7394, 7456, 7454, 7393, 7395, 7457, 7455
3800, 7394, 7396, 7458, 7456, 7395, 7397, 7459, 7457
3801, 7396, 7398, 7460, 7458, 7397, 7399, 7461, 7459
3802, 7398, 7400, 7462, 7460, 7399, 7401, 7463, 7461
3803, 7400, 7402, 7464, 7462, 7401, 7403, 7465, 7463
3804, 7402, 7404, 7466, 7464, 7403, 7405, 7467, 7465
3805, 7404, 7406, 7468, 7466, 7405, 7407, 7469, 7467
3806, 7406, 7408, 7470, 7468, 7407, 7409, 7471, 7469
3807, 7408, 7410, 7472, 7470, 7409, 7411, 7473, 7471
3808, 7410, 6412, 6476, 7472, 7411, 6413, 6477, 7473
3809, 4424, 7412, 7474, 4490, 4425, 7413, 7475, 4491
3810, 7412, 7414, 7476, 7474, 7413, 7415, 7477, 7475
3811, 7414, 7416, 7478, 7476, 7415, 7417, 7479, 7477
3812, 7416, 7418, 7480, 7478, 7417, 7419, 7481, 7479
3813, 7418, 7420, 7482, 7480, 7419, 7421, 7483, 7481
3814, 7420, 7422, 7484, 7482, 7421, 7423, 7485, 7483
3815, 7422, 7424, 7486, 7484, 7423, 7425, 7487, 7485
3816, 7424, 7426, 7488, 7486, 7425, 7427, 7489, 7487
3817, 7426, 7428, 7490, 7488, 7427, 7429, 7491, 7489
3818, 7428, 7430, 7492, 7490, 7429, 7431, 7493, 7491
3819, 7430, 7432, 7494, 7492, 7431, 7433, 7495, 7493
3820, 7432, 7434, 7496, 7494, 7433, 7435, 7497, 7495
3821, 7434, 7436, 7498, 7496, 7435, 7437, 7499, 7497
3822, 7436, 7438, 7500, 7498, 7437, 7439, 7501, 7499
3823, 7438, 7440, 7502, 7500, 7439, 7441, 7503, 7501
3824, 7440, 7442, 7504, 7502, 7441, 7443, 7505, 7503
3825, 7442, 7444, 7506, 7504, 7443, 7445, 7507, 7505
3826, 7444, 7446, 7508, 7506, 7445, 7447, 7509, 7507
3827, 7446, 7448, 7510, 7508, 7447, 7449, 7511, 7509
3828, 7448, 7450, 7512, 7510, 7449, 7451, 7513, 7511
3829, 7450, 7452, 7514, 7512, 7451, 7453, 7515, 7513
3830, 7452, 7454, 7516, 7514, 7453, 7455, 7517, 7515
3831, 7454, 7456, 7518, 7516, 7455, 7457, 7519, 7517
3832, 7456, 7458, 7520, 7518, 7457, 7459, 7521, 7519
3833, 7458, 7460, 7522, 7520, 7459, 7461, 7523, 7521
3834, 7460, 7462, 7524, 7522, 7461, 7463, 7525, 7523
3835, 7462, 7464, 7526, 7524, 7463, 7465, 7527, 7525
3836, 7464, 7466, 7528, 7526, 7465, 7467, 7529, 7527
3837, 7466, 7468, 7530, 7528, 7467, 7469, 7531, 7529
3838, 7468, 7470, 7532, 7530, 7469, 7471, 7533, 7531
3839, 7470, 7472, 7534, 7532, 7471, 7473, 7535, 7533
3840, 7472, 6476, 6540, 7534, 7473, 6477, 6541, 7535
3841, 4490, 7474, 7536, 4556, 4491, 7475, 7537, 4557
3842, 7474, 7476, 7538, 7536, 7475, 7477, 7539, 7537
3843, 7476, 7478, 7540, 7538, 7477, 7479, 7541, 7539
3844, 7478, 7480, 7542, 7540, 7479, 7481, 7543, 7541
3845, 7480, 7482, 7544, 7542, 7481, 7483, 7545, 7543
3846, 7482, 7484, 7546, 7544, 7483, 7485, 7547, 7545
3847, 7484, 7486, 7548, 7546, 7485, 7487, 7549, 7547
3848, 7486, 7488, 7550, 7548, 7487, 7489, 7551, 7549
3849, 7488, 7490, 7552, 7550, 7489, 7491, 7553, 7551
3850, 7490, 7492, 7554, 7552, 7491, 7493, 7555, 7553
3851, 7492, 7494, 7556, 7554, 7493, 7495, 7557, 7555
3852, 7494, 7496, 7558, 7556, 7495, 7497, 7559, 7557
3853, 7496, 7498, 7560, 7558, 7497, 7499, 7561, 7559
3854, 7498, 7500, 7562, 7560, 7499, 7501, 7563, 7561
3855, 7500, 7502, 7564, 7562, 7501, 7503, 7565, 7563
3856, 7502, 7504, 7566, 7564, 7503, 7505, 7567, 7565
3857, 7504, 7506, 7568, 7566, 7505, 7507, 7569, 7567
3858, 7506, 7508, 7570, 7568, 7507, 7509, 7571, 7569
3859, 7508, 7510, 7572, 7570, 7509, 7511, 7573, 7571
3860, 7510, 7512, 7574, 7572, 7511, 7513, 7575, 7573
3861, 7512, 7514, 7576, 7574, 7513, 7515, 7577, 7575
3862, 7514, 7516, 7578, 7576, 7515, 7517, 7579, 7577
3863, 7516, 7518, 7580, 7578, 7517, 7519, 7581, 7579
3864, 7518, 7520, 7582, 7580, 7519, 7521, 7583, 7581
3865, 7520, 7522, 7584, 7582, 7521, 7523, 7585, 7583
3866, 7522, 7524, 7586, 7584, 7523, 7525, 7587, 7585
3867, 7524, 7526, 7588, 7586, 7525, 7527, 7589, 7587
3868, 7526, 7528, 7590, 7588, 7527, 7529, 7591, 7589
3869, 7528, 7530, 7592, 7590, 7529, 7531, 7593, 7591
3870, 7530, 7532, 7594, 7592, 7531, 7533, 7595, 7593
3871, 7532, 7534, 7596, 7594, 7533, 7535, 7597, 7595
3872, 7534, 6540, 6604, 7596, 7535, 6541, 6605, 7597
*NSET, NSET=CLAMP
1, 2, 3, 4, 5, 6, 7, 8, 9, 10, 11, 12
13, 14, 15, 16, 17, 18, 19, 20, 21, 22, 23, 24
25, 26, 27, 28, 29, 30, 31, 32, 33, 34, 35, 36
37, 38, 39, 40, 41, 42, 43, 44, 45, 46, 47, 48
49, 50, 51, 52, 53, 54, 55, 56, 57, 58, 59, 60
61, 62, 63, 64, 65, 66, 82, 83, 84, 85, 86, 87
103, 104, 105, 106, 107, 108, 124, 125, 126, 127, 128, 129
145, 146, 147, 148, 149, 150, 166, 167, 168, 169, 170, 171
187, 188, 189, 190, 191, 192, 208, 209, 210, 211, 212, 213
229, 230, 231, 232, 233, 234, 250, 251, 252, 253, 254, 255
271, 272, 273, 274, 275, 276, 292, 293, 294, 295, 296, 297
313, 314, 315, 316, 317, 318, 334, 335, 336, 337, 338, 339
355, 356, 357, 358, 359, 360, 376, 377, 378, 379, 380, 381
382, 383, 384, 385, 386, 387, 388, 389, 390, 391, 392, 393
394, 395, 396, 397, 398, 399, 400, 401, 402, 403, 404, 405
406, 407, 408, 409, 410, 411, 412, 413, 414, 415, 416, 417
418, 419, 420, 421, 422, 423, 424, 425, 426, 427, 428, 429
430, 431, 432, 433, 434, 435, 436, 437, 438, 439, 440, 441
442, 443, 444, 445, 446, 447, 448, 449, 450, 451, 452, 453
454, 455, 456, 457, 458, 459, 460, 461, 462, 463, 464, 465
466, 467, 468, 469, 470, 471, 472, 473, 474, 475, 476, 477
478, 479, 480, 481, 482, 483, 484, 485, 486, 487, 488, 489
490, 491, 492, 493, 494, 495, 496, 497, 498, 499, 500, 501
502, 503, 504, 505, 506, 507, 523, 524, 525, 526, 527, 528
544, 545, 546, 547, 548, 549, 565, 566, 567, 568, 569, 570
586, 587, 588, 589, 590, 591, 607, 608, 609, 610, 611, 612
628, 629, 630, 631, 632, 633, 649, 650, 651, 652, 653, 654
670, 671, 672, 673, 674, 675, 691, 692, 693, 694, 695, 696
712, 713, 714, 715, 716, 717, 733, 734, 735, 736, 737, 738
754, 755, 756, 757, 758, 759, 775, 776, 777, 778, 779, 780
796, 797, 798, 799, 800, 801, 817, 818, 819, 820, 821, 822
823, 824, 825, 826, 827, 828, 829, 830, 831, 832, 833, 834
835, 836, 837, 838, 839, 840, 841, 842, 843, 844, 845, 846
847, 848, 849, 850, 851, 852, 853, 854, 855, 856, 857, 858
859, 860, 861, 862, 863, 864, 865, 866, 867, 868, 869, 870
871, 872, 873, 874, 875, 876, 877, 878, 879, 880, 881, 882
883, 884, 885, 886, 887, 888, 889, 890, 891, 892, 893, 894
895, 896, 897, 898, 899, 900, 901, 902, 903, 904, 905, 906
907, 908, 909, 910, 911, 912, 913, 914, 915, 916, 917, 918
919, 920, 921, 922, 923, 924, 925, 926, 927, 928, 929, 930
931, 932, 933, 934, 935, 936, 937, 938, 939, 940, 941, 942
943, 944, 945, 946, 947, 948, 964, 965, 966, 967, 968, 969
985, 986, 987, 988, 989, 990, 1006, 1007, 1008, 1009, 1010, 1011
1027, 1028, 1029, 1030, 1031, 1032, 1048, 1049, 1050, 1051, 1052, 1053
1069, 1070, 1071, 1072, 1073, 1074, 1090, 1091, 1092, 1093, 1094, 1095
1111, 1112, 1113, 1114, 1115, 1116, 1132, 1133, 1134, 1135, 1136, 1137
1153, 1154, 1155, 1156, 1157, 1158, 1174, 1175, 1176, 1177, 1178, 1179
1195, 1196, 1197, 1198, 1199, 1200, 1216, 1217, 1218, 1219, 1220, 1221
1237, 1238, 1239, 1240, 1241, 1242, 1258, 1259, 1260, 1261, 1262, 1263
1264, 1265, 1266, 1267, 1268, 1269, 1270, 1271, 1272, 1273, 1274, 1275
1276, 1277, 1278, 1279, 1280, 1281, 1282, 1283, 1284, 1285, 1286, 1287
1288, 1289, 1290, 1291, 1292, 1293, 1294, 1295, 1296, 1297, 1298, 1299
1300, 1301, 1302, 1303, 1304, 1305, 1306, 1307, 1308, 1309, 1310, 1311
1312, 1313, 1314, 1315, 1316, 1317, 1318, 1319, 1320, 1321, 1322, 1323
*NSET, NSET=SUPA
905
*NSET, NSET=SUPB
923
*NSET, NSET=SUPC
1283
*NSET, NSET=NTOP
883, 884, 885, 886, 887, 888, 889, 890, 891, 892, 893, 894
895, 896, 897, 898, 899, 900, 901, 902, 903, 904, 905, 906
907, 908, 909, 910, 911, 912, 913, 914, 915, 916, 917, 918
919, 920, 921, 922, 923, 924, 925, 926, 927, 928, 929, 930
931, 932, 933, 934, 935, 936, 937, 938, 939, 940, 941, 942
943, 944, 945, 946, 947, 948, 949, 950, 951, 952, 953, 954
955, 956, 957, 958, 959, 960, 961, 962, 963, 964, 965, 966
967, 968, 969, 970, 971, 972, 973, 974, 975, 976, 977, 978
979, 980, 981, 982, 983, 984, 985, 986, 987, 988, 989, 990
991, 992, 993, 994, 995, 996, 997, 998, 999, 1000, 1001, 1002
1003, 1004, 1005, 1006, 1007, 1008, 1009, 1010, 1011, 1012, 1013, 1014
1015, 1016, 1017, 1018, 1019, 1020, 1021, 1022, 1023, 1024, 1025, 1026
1027, 1028, 1029, 1030, 1031, 1032, 1033, 1034, 1035, 1036, 1037, 1038
1039, 1040, 1041, 1042, 1043, 1044, 1045, 1046, 1047, 1048, 1049, 1050
1051, 1052, 1053, 1054, 1055, 1056, 1057, 1058, 1059, 1060, 1061, 1062
1063, 1064, 1065, 1066, 1067, 1068, 1069, 1070, 1071, 1072, 1073, 1074
1075, 1076, 1077, 1078, 1079, 1080, 1081, 1082, 1083, 1084, 1085, 1086
1087, 1088, 1089, 1090, 1091, 1092, 1093, 1094, 1095, 1096, 1097, 1098
1099, 1100, 1101, 1102, 1103, 1104, 1105, 1106, 1107, 1108, 1109, 1110
1111, 1112, 1113, 1114, 1115, 1116, 1117, 1118, 1119, 1120, 1121, 1122
1123, 1124, 1125, 1126, 1127, 1128, 1129, 1130, 1131, 1132, 1133, 1134
1135, 1136, 1137, 1138, 1139, 1140, 1141, 1142, 1143, 1144, 1145, 1146
1147, 1148, 1149, 1150, 1151, 1152, 1153, 1154, 1155, 1156, 1157, 1158
1159, 1160, 1161, 1162, 1163, 1164, 1165, 1166, 1167, 1168, 1169, 1170
1171, 1172, 1173, 1174, 1175, 1176, 1177, 1178, 1179, 1180, 1181, 1182
1183, 1184, 1185, 1186, 1187, 1188, 1189, 1190, 1191, 1192, 1193, 1194
1195, 1196, 1197, 1198, 1199, 1200, 1201, 1202, 1203, 1204, 1205, 1206
1207, 1208, 1209, 1210, 1211, 1212, 1213, 1214, 1215, 1216, 1217, 1218
1219, 1220, 1221, 1222, 1223, 1224, 1225, 1226, 1227, 1228, 1229, 1230
1231, 1232, 1233, 1234, 1235, 1236, 1237, 1238, 1239, 1240, 1241, 1242
1243, 1244, 1245, 1246, 1247, 1248, 1249, 1250, 1251, 1252, 1253, 1254
1255, 1256, 1257, 1258, 1259, 1260, 1261, 1262, 1263, 1264, 1265, 1266
1267, 1268, 1269, 1270, 1271, 1272, 1273, 1274, 1275, 1276, 1277, 1278
1279, 1280, 1281, 1282, 1283, 1284, 1285, 1286, 1287, 1288, 1289, 1290
1291, 1292, 1293, 1294, 1295, 1296, 1297, 1298, 1299, 1300, 1301, 1302
1303, 1304, 1305, 1306, 1307, 1308, 1309, 1310, 1311, 1312, 1313, 1314
1315, 1316, 1317, 1318, 1319, 1320, 1321, 1322, 1323
*ELSET, ELSET=ETOPL
401, 402, 403, 404, 405, 406, 407, 408, 409, 410, 411, 412
413, 414, 415, 416, 417, 418, 419, 420, 421, 422, 423, 424
425, 426, 427, 428, 429, 430, 431, 432, 433, 434, 435, 436
437, 438, 439, 440, 441, 442, 443, 444, 445, 446, 447, 448
449, 450, 451, 452, 453, 454, 455, 456, 457, 458, 459, 460
461, 462, 463, 464, 465, 466, 467, 468, 469, 470, 471, 472
473, 474, 475, 476, 477, 478, 479, 480, 481, 482, 483, 484
485, 486, 487, 488, 489, 490, 491, 492, 493, 494, 495, 496
497, 498, 499, 500, 501, 502, 503, 504, 505, 506, 507, 508
509, 510, 511, 512, 513, 514, 515, 516, 517, 518, 519, 520
521, 522, 523, 524, 525, 526, 527, 528, 529, 530, 531, 532
533, 534, 535, 536, 537, 538, 539, 540, 541, 542, 543, 544
545, 546, 547, 548, 549, 550, 551, 552, 553, 554, 555, 556
557, 558, 559, 560, 561, 562, 563, 564, 565, 566, 567, 568
569, 570, 571, 572, 573, 574, 575, 576, 577, 578, 579, 580
581, 582, 583, 584, 585, 586, 587, 588, 589, 590, 591, 592
593, 594, 595, 596, 597, 598, 599, 600, 601, 602, 603, 604
605, 606, 607, 608, 609, 610, 611, 612, 613, 614, 615, 616
617, 618, 619, 620, 621, 622, 623, 624, 625, 626, 627, 628
629, 630, 631, 632, 633, 634, 635, 636, 637, 638, 639, 640
641, 642, 643, 644, 645, 646, 647, 648, 649, 650, 651, 652
653, 654, 655, 656, 657, 658, 659, 660, 661, 662, 663, 664
665, 666, 667, 668, 669, 670, 671, 672, 673, 674, 675, 676
677, 678, 679, 680, 681, 682, 683, 684, 685, 686, 687, 688
689, 690, 691, 692, 693, 694, 695, 696, 697, 698, 699, 700
701, 702, 703, 704, 705, 706, 707, 708, 709, 710, 711, 712
713, 714, 715, 716, 717, 718, 719, 720, 721, 722, 723, 724
725, 726, 727, 728, 729, 730, 731, 732, 733, 734, 735, 736
737, 738, 739, 740, 741, 742, 743, 744, 745, 746, 747, 748
749, 750, 751, 752, 753, 754, 755, 756, 757, 758, 759, 760
761, 762, 763, 764, 765, 766, 767, 768, 769, 770, 771, 772
773, 774, 775, 776, 777, 778, 779, 780, 781, 782, 783, 784
785, 786, 787, 788, 789, 790, 791, 792, 793, 794, 795, 796
797, 798, 799, 800
*SURFACE, NAME=SSLAVE, TYPE=ELEMENT
ETOPL, S2
*SURFACE, NAME=SMASTER, TYPE=ELEMENT
801, S1
802, S1
803, S1
804, S1
805, S1
806, S1
807, S1
808, S1
809, S1
810, S1
811, S1
812, S1
813, S1
814, S1
815, S1
816, S1
817, S1
818, S1
819, S1
820, S1
821, S1
822, S1
823, S1
824, S1
825, S1
826, S1
827, S1
828, S1
829, S1
830, S1
831, S1
832, S1
833, S1
834, S1
835, S1
836, S1
837, S1
838, S1
839, S1
840, S1
841, S1
842, S1
843, S1
844, S1
845, S1
846, S1
847, S1
848, S1
849, S1
850, S1
851, S1
852, S1
853, S1
854, S1
855, S1
856, S1
857, S1
858, S1
859, S1
860, S1
861, S1
862, S1
863, S1
864, S1
865, S1
866, S1
867, S1
868, S1
869, S1
870, S1
871, S1
872, S1
873, S1
874, S1
875, S1
876, S1
877, S1
878, S1
879, S1
880, S1
881, S1
882, S1
883, S1
884, S1
885, S1
886, S1
887, S1
888, S1
889, S1
890, S1
891, S1
892, S1
893, S1
894, S1
895, S1
896, S1
897, S1
898, S1
899, S1
900, S1
901, S1
902, S1
903, S1
904, S1
905, S1
906, S1
907, S1
908, S1
909, S1
910, S1
911, S1
912, S1
913, S1
914, S1
915, S1
916, S1
917, S1
918, S1
919, S1
920, S1
921, S1
922, S1
923, S1
924, S1
925, S1
926, S1
927, S1
928, S1
929, S1
930, S1
931, S1
932, S1
933, S1
934, S1
935, S1
936, S1
937, S1
938, S1
939, S1
940, S1
941, S1
942, S1
943, S1
944, S1
945, S1
946, S1
947, S1
948, S1
949, S1
950, S1
951, S1
952, S1
953, S1
954, S1
955, S1
956, S1
957, S1
958, S1
959, S1
960, S1
961, S1
962, S1
963, S1
964, S1
965, S1
966, S1
967, S1
968, S1
969, S1
970, S1
971, S1
972, S1
973, S1
974, S1
975, S1
976, S1
977, S1
978, S1
979, S1
980, S1
981, S1
982, S1
983, S1
984, S1
985, S1
986, S1
987, S1
988, S1
989, S1
990, S1
991, S1
992, S1
993, S1
994, S1
995, S1
996, S1
997, S1
998, S1
999, S1
1000, S1
1001, S1
1002, S1
1003, S1
1004, S1
1005, S1
1006, S1
1007, S1
1008, S1
1009, S1
1010, S1
1011, S1
1012, S1
1013, S1
1014, S1
1015, S1
1016, S1
1017, S1
1018, S1
1019, S1
1020, S1
1021, S1
1022, S1
1023, S1
1024, S1
1025, S1
1026, S1
1027, S1
1028, S1
1029, S1
1030, S1
1031, S1
1032, S1
1033, S1
1034, S1
1035, S1
1036, S1
1037, S1
1038, S1
1039, S1
1040, S1
1041, S1
1042, S1
1043, S1
1044, S1
1045, S1
1046, S1
1047, S1
1048, S1
1049, S1
1050, S1
1051, S1
1052, S1
1053, S1
1054, S1
1055, S1
1056, S1
1057, S1
1058, S1
1059, S1
1060, S1
1061, S1
1062, S1
1063, S1
1064, S1
1065, S1
1066, S1
1067, S1
1068, S1
1069, S1
1070, S1
1071, S1
1072, S1
1073, S1
1074, S1
1075, S1
1076, S1
1077, S1
1078, S1
1079, S1
1080, S1
1081, S1
1082, S1
1083, S1
1084, S1
1085, S1
1086, S1
1087, S1
1088, S1
1089, S1
1090, S1
1091, S1
1092, S1
1093, S1
1094, S1
1095, S1
1096, S1
1097, S1
1098, S1
1099, S1
1100, S1
1101, S1
1102, S1
1103, S1
1104, S1
1105, S1
1106, S1
1107, S1
1108, S1
1109, S1
1110, S1
1111, S1
1112, S1
1113, S1
1114, S1
1115, S1
1116, S1
1117, S1
1118, S1
1119, S1
1120, S1
1121, S1
1122, S1
1123, S1
1124, S1
1125, S1
1126, S1
1127, S1
1128, S1
1129, S1
1130, S1
1131, S1
1132, S1
1133, S1
1134, S1
1135, S1
1136, S1
1137, S1
1138, S1
1139, S1
1140, S1
1141, S1
1142, S1
1143, S1
1144, S1
1145, S1
1146, S1
1147, S1
1148, S1
1149, S1
1150, S1
1151, S1
1152, S1
1153, S1
1154, S1
1155, S1
1156, S1
1157, S1
1158, S1
1159, S1
1160, S1
1161, S1
1162, S1
1163, S1
1164, S1
1165, S1
1166, S1
1167, S1
1168, S1
1169, S1
1170, S1
1171, S1
1172, S1
1173, S1
1174, S1
1175, S1
1176, S1
1177, S1
1178, S1
1179, S1
1180, S1
1181, S1
1182, S1
1183, S1
1184, S1
1185, S1
1186, S1
1187, S1
1188, S1
1189, S1
1190, S1
1191, S1
1192, S1
1193, S1
1194, S1
1195, S1
1196, S1
1197, S1
1198, S1
1199, S1
1200, S1
1201, S1
1202, S1
1203, S1
1204, S1
1205, S1
1206, S1
1207, S1
1208, S1
1209, S1
1210, S1
1211, S1
1212, S1
1213, S1
1214, S1
1215, S1
1216, S1
1217, S1
1218, S1
1219, S1
1220, S1
1221, S1
1222, S1
1223, S1
1224, S1
1225, S1
1226, S1
1227, S1
1228, S1
1229, S1
1230, S1
1231, S1
1232, S1
1233, S1
1234, S1
1235, S1
1236, S1
1237, S1
1238, S1
1239, S1
1240, S1
1241, S1
1242, S1
1243, S1
1244, S1
1245, S1
1246, S1
1247, S1
1248, S1
1249, S1
1250, S1
1251, S1
1252, S1
1253, S1
1254, S1
1255, S1
1256, S1
1257, S1
1258, S1
1259, S1
1260, S1
1261, S1
1262, S1
1263, S1
1264, S1
1265, S1
1266, S1
1267, S1
1268, S1
1269, S1
1270, S1
1271, S1
1272, S1
1273, S1
1274, S1
1275, S1
1276, S1
1277, S1
1278, S1
1279, S1
1280, S1
1281, S1
1282, S1
1283, S1
1284, S1
1285, S1
1286, S1
1287, S1
1288, S1
1289, S1
1290, S1
1291, S1
1292, S1
1293, S1
1294, S1
1295, S1
1296, S1
1297, S1
1298, S1
1299, S1
1300, S1
1301, S1
1302, S1
1303, S1
1304, S1
1305, S1
1306, S1
1307, S1
1308, S1
1309, S1
1310, S1
1311, S1
1312, S1
1313, S1
1314, S1
1315, S1
1316, S1
1317, S1
1318, S1
1319, S1
1320, S1
1321, S1
1322, S1
1323, S1
1324, S1
1325, S1
1326, S1
1327, S1
1328, S1
1329, S1
1330, S1
1331, S1
1332, S1
1333, S1
1334, S1
1335, S1
1336, S1
1337, S1
1338, S1
1339, S1
1340, S1
1341, S1
1342, S1
1343, S1
1344, S1
1345, S1
1346, S1
1347, S1
1348, S1
1349, S1
1350, S1
1351, S1
1352, S1
1353, S1
1354, S1
1355, S1
1356, S1
1357, S1
1358, S1
1359, S1
1360, S1
1361, S1
1362, S1
1363, S1
1364, S1
1365, S1
1366, S1
1367, S1
1368, S1
1369, S1
1370, S1
1371, S1
1372, S1
1373, S1
1374, S1
1375, S1
1376, S1
1377, S1
1378, S1
1379, S1
1380, S1
1381, S1
1382, S1
1383, S1
1384, S1
1385, S1
1386, S1
1387, S1
1388, S1
1389, S1
1390, S1
1391, S1
1392, S1
1393, S1
1394, S1
1395, S1
1396, S1
1397, S1
1398, S1
1399, S1
1400, S1
1401, S1
1402, S1
1403, S1
1404, S1
1405, S1
1406, S1
1407, S1
1408, S1
1409, S1
1410, S1
1411, S1
1412, S1
1413, S1
1414, S1
1415, S1
1416, S1
1417, S1
1418, S1
1419, S1
1420, S1
1421, S1
1422, S1
1423, S1
1424, S1
1425, S1
1426, S1
1427, S1
1428, S1
1429, S1
1430, S1
1431, S1
1432, S1
1433, S1
1434, S1
1435, S1
1436, S1
1437, S1
1438, S1
1439, S1
1440, S1
1441, S1
1442, S1
1443, S1
1444, S1
1445, S1
1446, S1
1447, S1
1448, S1
1449, S1
1450, S1
1451, S1
1452, S1
1453, S1
1454, S1
1455, S1
1456, S1
1457, S1
1458, S1
1459, S1
1460, S1
1461, S1
1462, S1
1463, S1
1464, S1
1465, S1
1466, S1
1467, S1
1468, S1
1469, S1
1470, S1
1471, S1
1472, S1
1473, S1
1474, S1
1475, S1
1476, S1
1477, S1
1478, S1
1479, S1
1480, S1
1481, S1
1482, S1
1483, S1
1484, S1
1485, S1
1486, S1
1487, S1
1488, S1
1489, S1
1490, S1
1491, S1
1492, S1
1493, S1
1494, S1
1495, S1
1496, S1
1497, S1
1498, S1
1499, S1
1500, S1
1501, S1
1502, S1
1503, S1
1504, S1
1505, S1
1506, S1
1507, S1
1508, S1
1509, S1
1510, S1
1511, S1
1512, S1
1513, S1
1514, S1
1515, S1
1516, S1
1517, S1
1518, S1
1519, S1
1520, S1
1521, S1
1522, S1
1523, S1
1524, S1
1525, S1
1526, S1
1527, S1
1528, S1
1529, S1
1530, S1
1531, S1
1532, S1
1533, S1
1534, S1
1535, S1
1536, S1
1537, S1
1538, S1
1539, S1
1540, S1
1541, S1
1542, S1
1543, S1
1544, S1
1545, S1
1546, S1
1547, S1
1548, S1
1549, S1
1550, S1
1551, S1
1552, S1
1553, S1
1554, S1
1555, S1
1556, S1
1557, S1
1558, S1
1559, S1
1560, S1
1561, S1
1562, S1
1563, S1
1564, S1
1565, S1
1566, S1
1567, S1
1568, S1
1569, S1
1570, S1
1571, S1
1572, S1
1573, S1
1574, S1
1575, S1
1576, S1
1577, S1
1578, S1
1579, S1
1580, S1
1581, S1
1582, S1
1583, S1
1584, S1
1585, S1
1586, S1
1587, S1
1588, S1
1589, S1
1590, S1
1591, S1
1592, S1
1593, S1
1594, S1
1595, S1
1596, S1
1597, S1
1598, S1
1599, S1
1600, S1
1601, S1
1602, S1
1603, S1
1604, S1
1605, S1
1606, S1
1607, S1
1608, S1
1609, S1
1610, S1
1611, S1
1612, S1
1613, S1
1614, S1
1615, S1
1616, S1
1617, S1
1618, S1
1619, S1
1620, S1
1621, S1
1622, S1
1623, S1
1624, S1
1625, S1
1626, S1
1627, S1
1628, S1
1629, S1
1630, S1
1631, S1
1632, S1
1633, S1
1634, S1
1635, S1
1636, S1
1637, S1
1638, S1
1639, S1
1640, S1
1641, S1
1642, S1
1643, S1
1644, S1
1645, S1
1646, S1
1647, S1
1648, S1
1649, S1
1650, S1
1651, S1
1652, S1
1653, S1
1654, S1
1655, S1
1656, S1
1657, S1
1658, S1
1659, S1
1660, S1
1661, S1
1662, S1
1663, S1
1664, S1
1665, S1
1666, S1
1667, S1
1668, S1
1669, S1
1670, S1
1671, S1
1672, S1
1673, S1
1674, S1
1675, S1
1676, S1
1677, S1
1678, S1
1679, S1
1680, S1
1681, S1
1682, S1
1683, S1
1684, S1
1685, S1
1686, S1
1687, S1
1688, S1
1689, S1
1690, S1
1691, S1
1692, S1
1693, S1
1694, S1
1695, S1
1696, S1
1697, S1
1698, S1
1699, S1
1700, S1
1701, S1
1702, S1
1703, S1
1704, S1
1705, S1
1706, S1
1707, S1
1708, S1
1709, S1
1710, S1
1711, S1
1712, S1
1713, S1
1714, S1
1715, S1
1716, S1
1717, S1
1718, S1
1719, S1
1720, S1
1721, S1
1722, S1
1723, S1
1724, S1
1725, S1
1726, S1
1727, S1
1728, S1
1729, S1
1730, S1
1731, S1
1732, S1
1733, S1
1734, S1
1735, S1
1736, S1
1737, S1
1738, S1
1739, S1
1740, S1
1741, S1
1742, S1
1743, S1
1744, S1
1745, S1
1746, S1
1747, S1
1748, S1
1749, S1
1750, S1
1751, S1
1752, S1
1753, S1
1754, S1
1755, S1
1756, S1
1757, S1
1758, S1
1759, S1
1760, S1
1761, S1
1762, S1
1763, S1
1764, S1
1765, S1
1766, S1
1767, S1
1768, S1
1769, S1
1770, S1
1771, S1
1772, S1
1773, S1
1774, S1
1775, S1
1776, S1
1777, S1
1778, S1
1779, S1
1780, S1
1781, S1
1782, S1
1783, S1
1784, S1
1785, S1
1786, S1
1787, S1
1788, S1
1789, S1
1790, S1
1791, S1
1792, S1
1793, S1
1794, S1
1795, S1
1796, S1
1797, S1
1798, S1
1799, S1
1800, S1
1801, S1
1802, S1
1803, S1
1804, S1
1805, S1
1806, S1
1807, S1
1808, S1
1809, S1
1810, S1
1811, S1
1812, S1
1813, S1
1814, S1
1815, S1
1816, S1
1817, S1
1818, S1
1819, S1
1820, S1
1821, S1
1822, S1
1823, S1
1824, S1
1825, S1
1826, S1
1827, S1
1828, S1
1829, S1
1830, S1
1831, S1
1832, S1
1833, S1
1834, S1
1835, S1
1836, S1
1837, S1
1838, S1
1839, S1
1840, S1
1841, S1
1842, S1
1843, S1
1844, S1
1845, S1
1846, S1
1847, S1
1848, S1
1849, S1
1850, S1
1851, S1
1852, S1
1853, S1
1854, S1
1855, S1
1856, S1
1857, S1
1858, S1
1859, S1
1860, S1
1861, S1
1862, S1
1863, S1
1864, S1
1865, S1
1866, S1
1867, S1
1868, S1
1869, S1
1870, S1
1871, S1
1872, S1
1873, S1
1874, S1
1875, S1
1876, S1
1877, S1
1878, S1
1879, S1
1880, S1
1881, S1
1882, S1
1883, S1
1884, S1
1885, S1
1886, S1
1887, S1
1888, S1
1889, S1
1890, S1
1891, S1
1892, S1
1893, S1
1894, S1
1895, S1
1896, S1
1897, S1
1898, S1
1899, S1
1900, S1
1901, S1
1902, S1
1903, S1
1904, S1
1905, S1
1906, S1
1907, S1
1908, S1
1909, S1
1910, S1
1911, S1
1912, S1
1913, S1
1914, S1
1915, S1
1916, S1
1917, S1
1918, S1
1919, S1
1920, S1
1921, S1
1922, S1
1923, S1
1924, S1
1925, S1
1926, S1
1927, S1
1928, S1
1929, S1
1930, S1
1931, S1
1932, S1
1933, S1
1934, S1
1935, S1
1936, S1
1937, S1
1938, S1
1939, S1
1940, S1
1941, S1
1942, S1
1943, S1
1944, S1
1945, S1
1946, S1
1947, S1
1948, S1
1949, S1
1950, S1
1951, S1
1952, S1
1953, S1
1954, S1
1955, S1
1956, S1
1957, S1
1958, S1
1959, S1
1960, S1
1961, S1
1962, S1
1963, S1
1964, S1
1965, S1
1966, S1
1967, S1
1968, S1
1969, S1
1970, S1
1971, S1
1972, S1
1973, S1
1974, S1
1975, S1
1976, S1
1977, S1
1978, S1
1979, S1
1980, S1
1981, S1
1982, S1
1983, S1
1984, S1
1985, S1
1986, S1
1987, S1
1988, S1
1989, S1
1990, S1
1991, S1
1992, S1
1993, S1
1994, S1
1995, S1
1996, S1
1997, S1
1998, S1
1999, S1
2000, S1
2001, S1
2002, S1
2003, S1
2004, S1
2005, S1
2006, S1
2007, S1
2008, S1
2009, S1
2010, S1
2011, S1
2012, S1
2013, S1
2014, S1
2015, S1
2016, S1
2017, S1
2018, S1
2019, S1
2020, S1
2021, S1
2022, S1
2023, S1
2024, S1
2025, S1
2026, S1
2027, S1
2028, S1
2029, S1
2030, S1
2031, S1
2032, S1
2033, S1
2034, S1
2035, S1
2036, S1
2037, S1
2038, S1
2039, S1
2040, S1
2041, S1
2042, S1
2043, S1
2044, S1
2045, S1
2046, S1
2047, S1
2048, S1
2049, S1
2050, S1
2051, S1
2052, S1
2053, S1
2054, S1
2055, S1
2056, S1
2057, S1
2058, S1
2059, S1
2060, S1
2061, S1
2062, S1
2063, S1
2064, S1
2065, S1
2066, S1
2067, S1
2068, S1
2069, S1
2070, S1
2071, S1
2072, S1
2073, S1
2074, S1
2075, S1
2076, S1
2077, S1
2078, S1
2079, S1
2080, S1
2081, S1
2082, S1
2083, S1
2084, S1
2085, S1
2086, S1
2087, S1
2088, S1
2089, S1
2090, S1
2091, S1
2092, S1
2093, S1
2094, S1
2095, S1
2096, S1
2097, S1
2098, S1
2099, S1
2100, S1
2101, S1
2102, S1
2103, S1
2104, S1
2105, S1
2106, S1
2107, S1
2108, S1
2109, S1
2110, S1
2111, S1
2112, S1
2113, S1
2114, S1
2115, S1
2116, S1
2117, S1
2118, S1
2119, S1
2120, S1
2121, S1
2122, S1
2123, S1
2124, S1
2125, S1
2126, S1
2127, S1
2128, S1
2129, S1
2130, S1
2131, S1
2132, S1
2133, S1
2134, S1
2135, S1
2136, S1
2137, S1
2138, S1
2139, S1
2140, S1
2141, S1
2142, S1
2143, S1
2144, S1
2145, S1
2146, S1
2147, S1
2148, S1
2149, S1
2150, S1
2151, S1
2152, S1
2153, S1
2154, S1
2155, S1
2156, S1
2157, S1
2158, S1
2159, S1
2160, S1
2161, S1
2162, S1
2163, S1
2164, S1
2165, S1
2166, S1
2167, S1
2168, S1
2169, S1
2170, S1
2171, S1
2172, S1
2173, S1
2174, S1
2175, S1
2176, S1
2177, S1
2178, S1
2179, S1
2180, S1
2181, S1
2182, S1
2183, S1
2184, S1
2185, S1
2186, S1
2187, S1
2188, S1
2189, S1
2190, S1
2191, S1
2192, S1
2193, S1
2194, S1
2195, S1
2196, S1
2197, S1
2198, S1
2199, S1
2200, S1
2201, S1
2202, S1
2203, S1
2204, S1
2205, S1
2206, S1
2207, S1
2208, S1
2209, S1
2210, S1
2211, S1
2212, S1
2213, S1
2214, S1
2215, S1
2216, S1
2217, S1
2218, S1
2219, S1
2220, S1
2221, S1
2222, S1
2223, S1
2224, S1
2225, S1
2226, S1
2227, S1
2228, S1
2229, S1
2230, S1
2231, S1
2232, S1
2233, S1
2234, S1
2235, S1
2236, S1
2237, S1
2238, S1
2239, S1
2240, S1
2241, S1
2242, S1
2243, S1
2244, S1
2245, S1
2246, S1
2247, S1
2248, S1
2249, S1
2250, S1
2251, S1
2252, S1
2253, S1
2254, S1
2255, S1
2256, S1
2257, S1
2258, S1
2259, S1
2260, S1
2261, S1
2262, S1
2263, S1
2264, S1
2265, S1
2266, S1
2267, S1
2268, S1
2269, S1
2270, S1
2271, S1
2272, S1
2273, S1
2274, S1
2275, S1
2276, S1
2277, S1
2278, S1
2279, S1
2280, S1
2281, S1
2282, S1
2283, S1
2284, S1
2285, S1
2286, S1
2287, S1
2288, S1
2289, S1
2290, S1
2291, S1
2292, S1
2293, S1
2294, S1
2295, S1
2296, S1
2297, S1
2298, S1
2299, S1
2300, S1
2301, S1
2302, S1
2303, S1
2304, S1
2305, S1
2306, S1
2307, S1
2308, S1
2309, S1
2310, S1
2311, S1
2312, S1
2313, S1
2314, S1
2315, S1
2316, S1
2317, S1
2318, S1
2319, S1
2320, S1
2321, S1
2322, S1
2323, S1
2324, S1
2325, S1
2326, S1
2327, S1
2328, S1
2329, S1
2330, S1
2331, S1
2332, S1
2333, S1
2334, S1
2335, S1
2336, S1
2337, S2
2338, S2
2339, S2
2340, S2
2341, S2
2342, S2
2343, S2
2344, S2
2345, S2
2346, S2
2347, S2
2348, S2
2349, S2
2350, S2
2351, S2
2352, S2
2353, S2
2354, S2
2355, S2
2356, S2
2357, S2
2358, S2
2359, S2
2360, S2
2361, S2
2362, S2
2363, S2
2364, S2
2365, S2
2366, S2
2367, S2
2368, S2
2369, S2
2370, S2
2371, S2
2372, S2
2373, S2
2374, S2
2375, S2
2376, S2
2377, S2
2378, S2
2379, S2
2380, S2
2381, S2
2382, S2
2383, S2
2384, S2
2385, S2
2386, S2
2387, S2
2388, S2
2389, S2
2390, S2
2391, S2
2392, S2
2393, S2
2394, S2
2395, S2
2396, S2
2397, S2
2398, S2
2399, S2
2400, S2
2401, S2
2402, S2
2403, S2
2404, S2
2405, S2
2406, S2
2407, S2
2408, S2
2409, S2
2410, S2
2411, S2
2412, S2
2413, S2
2414, S2
2415, S2
2416, S2
2417, S2
2418, S2
2419, S2
2420, S2
2421, S2
2422, S2
2423, S2
2424, S2
2425, S2
2426, S2
2427, S2
2428, S2
2429, S2
2430, S2
2431, S2
2432, S2
2433, S2
2434, S2
2435, S2
2436, S2
2437, S2
2438, S2
2439, S2
2440, S2
2441, S2
2442, S2
2443, S2
2444, S2
2445, S2
2446, S2
2447, S2
2448, S2
2449, S2
2450, S2
2451, S2
2452, S2
2453, S2
2454, S2
2455, S2
2456, S2
2457, S2
2458, S2
2459, S2
2460, S2
2461, S2
2462, S2
2463, S2
2464, S2
2465, S2
2466, S2
2467, S2
2468, S2
2469, S2
2470, S2
2471, S2
2472, S2
2473, S2
2474, S2
2475, S2
2476, S2
2477, S2
2478, S2
2479, S2
2480, S2
2481, S2
2482, S2
2483, S2
2484, S2
2485, S2
2486, S2
2487, S2
2488, S2
2489, S2
2490, S2
2491, S2
2492, S2
2493, S2
2494, S2
2495, S2
2496, S2
2497, S2
2498, S2
2499, S2
2500, S2
2501, S2
2502, S2
2503, S2
2504, S2
2505, S2
2506, S2
2507, S2
2508, S2
2509, S2
2510, S2
2511, S2
2512, S2
2513, S2
2514, S2
2515, S2
2516, S2
2517, S2
2518, S2
2519, S2
2520, S2
2521, S2
2522, S2
2523, S2
2524, S2
2525, S2
2526, S2
2527, S2
2528, S2
2529, S2
2530, S2
2531, S2
2532, S2
2533, S2
2534, S2
2535, S2
2536, S2
2537, S2
2538, S2
2539, S2
2540, S2
2541, S2
2542, S2
2543, S2
2544, S2
2545, S2
2546, S2
2547, S2
2548, S2
2549, S2
2550, S2
2551, S2
2552, S2
2553, S2
2554, S2
2555, S2
2556, S2
2557, S2
2558, S2
2559, S2
2560, S2
2561, S2
2562, S2
2563, S2
2564, S2
2565, S2
2566, S2
2567, S2
2568, S2
2569, S2
2570, S2
2571, S2
2572, S2
2573, S2
2574, S2
2575, S2
2576, S2
2577, S2
2578, S2
2579, S2
2580, S2
2581, S2
2582, S2
2583, S2
2584, S2
2585, S2
2586, S2
2587, S2
2588, S2
2589, S2
2590, S2
2591, S2
2592, S2
2593, S2
2594, S2
2595, S2
2596, S2
2597, S2
2598, S2
2599, S2
2600, S2
2601, S2
2602, S2
2603, S2
2604, S2
2605, S2
2606, S2
2607, S2
2608, S2
2609, S2
2610, S2
2611, S2
2612, S2
2613, S2
2614, S2
2615, S2
2616, S2
2617, S2
2618, S2
2619, S2
2620, S2
2621, S2
2622, S2
2623, S2
2624, S2
2625, S2
2626, S2
2627, S2
2628, S2
2629, S2
2630, S2
2631, S2
2632, S2
2633, S2
2634, S2
2635, S2
2636, S2
2637, S2
2638, S2
2639, S2
2640, S2
2641, S2
2642, S2
2643, S2
2644, S2
2645, S2
2646, S2
2647, S2
2648, S2
2649, S2
2650, S2
2651, S2
2652, S2
2653, S2
2654, S2
2655, S2
2656, S2
2657, S2
2658, S2
2659, S2
2660, S2
2661, S2
2662, S2
2663, S2
2664, S2
2665, S2
2666, S2
2667, S2
2668, S2
2669, S2
2670, S2
2671, S2
2672, S2
2673, S2
2674, S2
2675, S2
2676, S2
2677, S2
2678, S2
2679, S2
2680, S2
2681, S2
2682, S2
2683, S2
2684, S2
2685, S2
2686, S2
2687, S2
2688, S2
2689, S2
2690, S2
2691, S2
2692, S2
2693, S2
2694, S2
2695, S2
2696, S2
2697, S2
2698, S2
2699, S2
2700, S2
2701, S2
2702, S2
2703, S2
2704, S2
2705, S2
2706, S2
2707, S2
2708, S2
2709, S2
2710, S2
2711, S2
2712, S2
2713, S2
2714, S2
2715, S2
2716, S2
2717, S2
2718, S2
2719, S2
2720, S2
2721, S2
2722, S2
2723, S2
2724, S2
2725, S2
2726, S2
2727, S2
2728, S2
2729, S2
2730, S2
2731, S2
2732, S2
2733, S2
2734, S2
2735, S2
2736, S2
2737, S2
2738, S2
2739, S2
2740, S2
2741, S2
2742, S2
2743, S2
2744, S2
2745, S2
2746, S2
2747, S2
2748, S2
2749, S2
2750, S2
2751, S2
2752, S2
2753, S2
2754, S2
2755, S2
2756, S2
2757, S2
2758, S2
2759, S2
2760, S2
2761, S2
2762, S2
2763, S2
2764, S2
2765, S2
2766, S2
2767, S2
2768, S2
2769, S2
2770, S2
2771, S2
2772, S2
2773, S2
2774, S2
2775, S2
2776, S2
2777, S2
2778, S2
2779, S2
2780, S2
2781, S2
2782, S2
2783, S2
2784, S2
2785, S2
2786, S2
2787, S2
2788, S2
2789, S2
2790, S2
2791, S2
2792, S2
2793, S2
2794, S2
2795, S2
2796, S2
2797, S2
2798, S2
2799, S2
2800, S2
2801, S2
2802, S2
2803, S2
2804, S2
2805, S2
2806, S2
2807, S2
2808, S2
2809, S2
2810, S2
2811, S2
2812, S2
2813, S2
2814, S2
2815, S2
2816, S2
2817, S2
2818, S2
2819, S2
2820, S2
2821, S2
2822, S2
2823, S2
2824, S2
2825, S2
2826, S2
2827, S2
2828, S2
2829, S2
2830, S2
2831, S2
2832, S2
2833, S2
2834, S2
2835, S2
2836, S2
2837, S2
2838, S2
2839, S2
2840, S2
2841, S2
2842, S2
2843, S2
2844, S2
2845, S2
2846, S2
2847, S2
2848, S2
2849, S2
2850, S2
2851, S2
2852, S2
2853, S2
2854, S2
2855, S2
2856, S2
2857, S2
2858, S2
2859, S2
2860, S2
2861, S2
2862, S2
2863, S2
2864, S2
2865, S2
2866, S2
2867, S2
2868, S2
2869, S2
2870, S2
2871, S2
2872, S2
2873, S2
2874, S2
2875, S2
2876, S2
2877, S2
2878, S2
2879, S2
2880, S2
2881, S2
2882, S2
2883, S2
2884, S2
2885, S2
2886, S2
2887, S2
2888, S2
2889, S2
2890, S2
2891, S2
2892, S2
2893, S2
2894, S2
2895, S2
2896, S2
2897, S2
2898, S2
2899, S2
2900, S2
2901, S2
2902, S2
2903, S2
2904, S2
2905, S2
2906, S2
2907, S2
2908, S2
2909, S2
2910, S2
2911, S2
2912, S2
2913, S2
2914, S2
2915, S2
2916, S2
2917, S2
2918, S2
2919, S2
2920, S2
2921, S2
2922, S2
2923, S2
2924, S2
2925, S2
2926, S2
2927, S2
2928, S2
2929, S2
2930, S2
2931, S2
2932, S2
2933, S2
2934, S2
2935, S2
2936, S2
2937, S2
2938, S2
2939, S2
2940, S2
2941, S2
2942, S2
2943, S2
2944, S2
2945, S2
2946, S2
2947, S2
2948, S2
2949, S2
2950, S2
2951, S2
2952, S2
2953, S2
2954, S2
2955, S2
2956, S2
2957, S2
2958, S2
2959, S2
2960, S2
2961, S2
2962, S2
2963, S2
2964, S2
2965, S2
2966, S2
2967, S2
2968, S2
2969, S2
2970, S2
2971, S2
2972, S2
2973, S2
2974, S2
2975, S2
2976, S2
2977, S2
2978, S2
2979, S2
2980, S2
2981, S2
2982, S2
2983, S2
2984, S2
2985, S2
2986, S2
2987, S2
2988, S2
2989, S2
2990, S2
2991, S2
2992, S2
2993, S2
2994, S2
2995, S2
2996, S2
2997, S2
2998, S2
2999, S2
3000, S2
3001, S2
3002, S2
3003, S2
3004, S2
3005, S2
3006, S2
3007, S2
3008, S2
3009, S2
3010, S2
3011, S2
3012, S2
3013, S2
3014, S2
3015, S2
3016, S2
3017, S2
3018, S2
3019, S2
3020, S2
3021, S2
3022, S2
3023, S2
3024, S2
3025, S2
3026, S2
3027, S2
3028, S2
3029, S2
3030, S2
3031, S2
3032, S2
3033, S2
3034, S2
3035, S2
3036, S2
3037, S2
3038, S2
3039, S2
3040, S2
3041, S2
3042, S2
3043, S2
3044, S2
3045, S2
3046, S2
3047, S2
3048, S2
3049, S2
3050, S2
3051, S2
3052, S2
3053, S2
3054, S2
3055, S2
3056, S2
3057, S2
3058, S2
3059, S2
3060, S2
3061, S2
3062, S2
3063, S2
3064, S2
3065, S2
3066, S2
3067, S2
3068, S2
3069, S2
3070, S2
3071, S2
3072, S2
3073, S2
3074, S2
3075, S2
3076, S2
3077, S2
3078, S2
3079, S2
3080, S2
3081, S2
3082, S2
3083, S2
3084, S2
3085, S2
3086, S2
3087, S2
3088, S2
3089, S2
3090, S2
3091, S2
3092, S2
3093, S2
3094, S2
3095, S2
3096, S2
3097, S2
3098, S2
3099, S2
3100, S2
3101, S2
3102, S2
3103, S2
3104, S2
3105, S2
3106, S2
3107, S2
3108, S2
3109, S2
3110, S2
3111, S2
3112, S2
3113, S2
3114, S2
3115, S2
3116, S2
3117, S2
3118, S2
3119, S2
3120, S2
3121, S2
3122, S2
3123, S2
3124, S2
3125, S2
3126, S2
3127, S2
3128, S2
3129, S2
3130, S2
3131, S2
3132, S2
3133, S2
3134, S2
3135, S2
3136, S2
3137, S2
3138, S2
3139, S2
3140, S2
3141, S2
3142, S2
3143, S2
3144, S2
3145, S2
3146, S2
3147, S2
3148, S2
3149, S2
3150, S2
3151, S2
3152, S2
3153, S2
3154, S2
3155, S2
3156, S2
3157, S2
3158, S2
3159, S2
3160, S2
3161, S2
3162, S2
3163, S2
3164, S2
3165, S2
3166, S2
3167, S2
3168, S2
3169, S2
3170, S2
3171, S2
3172, S2
3173, S2
3174, S2
3175, S2
3176, S2
3177, S2
3178, S2
3179, S2
3180, S2
3181, S2
3182, S2
3183, S2
3184, S2
3185, S2
3186, S2
3187, S2
3188, S2
3189, S2
3190, S2
3191, S2
3192, S2
3193, S2
3194, S2
3195, S2
3196, S2
3197, S2
3198, S2
3199, S2
3200, S2
3201, S2
3202, S2
3203, S2
3204, S2
3205, S2
3206, S2
3207, S2
3208, S2
3209, S2
3210, S2
3211, S2
3212, S2
3213, S2
3214, S2
3215, S2
3216, S2
3217, S2
3218, S2
3219, S2
3220, S2
3221, S2
3222, S2
3223, S2
3224, S2
3225, S2
3226, S2
3227, S2
3228, S2
3229, S2
3230, S2
3231, S2
3232, S2
3233, S2
3234, S2
3235, S2
3236, S2
3237, S2
3238, S2
3239, S2
3240, S2
3241, S2
3242, S2
3243, S2
3244, S2
3245, S2
3246, S2
3247, S2
3248, S2
3249, S2
3250, S2
3251, S2
3252, S2
3253, S2
3254, S2
3255, S2
3256, S2
3257, S2
3258, S2
3259, S2
3260, S2
3261, S2
3262, S2
3263, S2
3264, S2
3265, S2
3266, S2
3267, S2
3268, S2
3269, S2
3270, S2
3271, S2
3272, S2
3273, S2
3274, S2
3275, S2
3276, S2
3277, S2
3278, S2
3279, S2
3280, S2
3281, S2
3282, S2
3283, S2
3284, S2
3285, S2
3286, S2
3287, S2
3288, S2
3289, S2
3290, S2
3291, S2
3292, S2
3293, S2
3294, S2
3295, S2
3296, S2
3297, S2
3298, S2
3299, S2
3300, S2
3301, S2
3302, S2
3303, S2
3304, S2
3305, S2
3306, S2
3307, S2
3308, S2
3309, S2
3310, S2
3311, S2
3312, S2
3313, S2
3314, S2
3315, S2
3316, S2
3317, S2
3318, S2
3319, S2
3320, S2
3321, S2
3322, S2
3323, S2
3324, S2
3325, S2
3326, S2
3327, S2
3328, S2
3329, S2
3330, S2
3331, S2
3332, S2
3333, S2
3334, S2
3335, S2
3336, S2
3337, S2
3338, S2
3339, S2
3340, S2
3341, S2
3342, S2
3343, S2
3344, S2
3345, S2
3346, S2
3347, S2
3348, S2
3349, S2
3350, S2
3351, S2
3352, S2
3353, S2
3354, S2
3355, S2
3356, S2
3357, S2
3358, S2
3359, S2
3360, S2
3361, S1
3362, S1
3363, S1
3364, S1
3365, S1
3366, S1
3367, S1
3368, S1
3369, S1
3370, S1
3371, S1
3372, S1
3373, S1
3374, S1
3375, S1
3376, S1
3377, S1
3378, S1
3379, S1
3380, S1
3381, S1
3382, S1
3383, S1
3384, S1
3385, S1
3386, S1
3387, S1
3388, S1
3389, S1
3390, S1
3391, S1
3392, S1
3393, S1
3394, S1
3395, S1
3396, S1
3397, S1
3398, S1
3399, S1
3400, S1
3401, S1
3402, S1
3403, S1
3404, S1
3405, S1
3406, S1
3407, S1
3408, S1
3409, S1
3410, S1
3411, S1
3412, S1
3413, S1
3414, S1
3415, S1
3416, S1
3417, S1
3418, S1
3419, S1
3420, S1
3421, S1
3422, S1
3423, S1
3424, S1
3425, S1
3426, S1
3427, S1
3428, S1
3429, S1
3430, S1
3431, S1
3432, S1
3433, S1
3434, S1
3435, S1
3436, S1
3437, S1
3438, S1
3439, S1
3440, S1
3441, S1
3442, S1
3443, S1
3444, S1
3445, S1
3446, S1
3447, S1
3448, S1
3449, S1
3450, S1
3451, S1
3452, S1
3453, S1
3454, S1
3455, S1
3456, S1
3457, S1
3458, S1
3459, S1
3460, S1
3461, S1
3462, S1
3463, S1
3464, S1
3465, S1
3466, S1
3467, S1
3468, S1
3469, S1
3470, S1
3471, S1
3472, S1
3473, S1
3474, S1
3475, S1
3476, S1
3477, S1
3478, S1
3479, S1
3480, S1
3481, S1
3482, S1
3483, S1
3484, S1
3485, S1
3486, S1
3487, S1
3488, S1
3489, S1
3490, S1
3491, S1
3492, S1
3493, S1
3494, S1
3495, S1
3496, S1
3497, S1
3498, S1
3499, S1
3500, S1
3501, S1
3502, S1
3503, S1
3504, S1
3505, S1
3506, S1
3507, S1
3508, S1
3509, S1
3510, S1
3511, S1
3512, S1
3513, S1
3514, S1
3515, S1
3516, S1
3517, S1
3518, S1
3519, S1
3520, S1
3521, S1
3522, S1
3523, S1
3524, S1
3525, S1
3526, S1
3527, S1
3528, S1
3529, S1
3530, S1
3531, S1
3532, S1
3533, S1
3534, S1
3535, S1
3536, S1
3537, S1
3538, S1
3539, S1
3540, S1
3541, S1
3542, S1
3543, S1
3544, S1
3545, S1
3546, S1
3547, S1
3548, S1
3549, S1
3550, S1
3551, S1
3552, S1
3553, S1
3554, S1
3555, S1
3556, S1
3557, S1
3558, S1
3559, S1
3560, S1
3561, S1
3562, S1
3563, S1
3564, S1
3565, S1
3566, S1
3567, S1
3568, S1
3569, S1
3570, S1
3571, S1
3572, S1
3573, S1
3574, S1
3575, S1
3576, S1
3577, S1
3578, S1
3579, S1
3580, S1
3581, S1
3582, S1
3583, S1
3584, S1
3585, S1
3586, S1
3587, S1
3588, S1
3589, S1
3590, S1
3591, S1
3592, S1
3593, S1
3594, S1
3595, S1
3596, S1
3597, S1
3598, S1
3599, S1
3600, S1
3601, S1
3602, S1
3603, S1
3604, S1
3605, S1
3606, S1
3607, S1
3608, S1
3609, S1
3610, S1
3611, S1
3612, S1
3613, S1
3614, S1
3615, S1
3616, S1
3617, S1
3618, S1
3619, S1
3620, S1
3621, S1
3622, S1
3623, S1
3624, S1
3625, S1
3626, S1
3627, S1
3628, S1
3629, S1
3630, S1
3631, S1
3632, S1
3633, S1
3634, S1
3635, S1
3636, S1
3637, S1
3638, S1
3639, S1
3640, S1
3641, S1
3642, S1
3643, S1
3644, S1
3645, S1
3646, S1
3647, S1
3648, S1
3649, S1
3650, S1
3651, S1
3652, S1
3653, S1
3654, S1
3655, S1
3656, S1
3657, S1
3658, S1
3659, S1
3660, S1
3661, S1
3662, S1
3663, S1
3664, S1
3665, S1
3666, S1
3667, S1
3668, S1
3669, S1
3670, S1
3671, S1
3672, S1
3673, S1
3674, S1
3675, S1
3676, S1
3677, S1
3678, S1
3679, S1
3680, S1
3681, S1
3682, S1
3683, S1
3684, S1
3685, S1
3686, S1
3687, S1
3688, S1
3689, S1
3690, S1
3691, S1
3692, S1
3693, S1
3694, S1
3695, S1
3696, S1
3697, S1
3698, S1
3699, S1
3700, S1
3701, S1
3702, S1
3703, S1
3704, S1
3705, S1
3706, S1
3707, S1
3708, S1
3709, S1
3710, S1
3711, S1
3712, S1
3713, S1
3714, S1
3715, S1
3716, S1
3717, S1
3718, S1
3719, S1
3720, S1
3721, S1
3722, S1
3723, S1
3724, S1
3725, S1
3726, S1
3727, S1
3728, S1
3729, S1
3730, S1
3731, S1
3732, S1
3733, S1
3734, S1
3735, S1
3736, S1
3737, S1
3738, S1
3739, S1
3740, S1
3741, S1
3742, S1
3743, S1
3744, S1
3745, S1
3746, S1
3747, S1
3748, S1
3749, S1
3750, S1
3751, S1
3752, S1
3753, S1
3754, S1
3755, S1
3756, S1
3757, S1
3758, S1
3759, S1
3760, S1
3761, S1
3762, S1
3763, S1
3764, S1
3765, S1
3766, S1
3767, S1
3768, S1
3769, S1
3770, S1
3771, S1
3772, S1
3773, S1
3774, S1
3775, S1
3776, S1
3777, S1
3778, S1
3779, S1
3780, S1
3781, S1
3782, S1
3783, S1
3784, S1
3785, S1
3786, S1
3787, S1
3788, S1
3789, S1
3790, S1
3791, S1
3792, S1
3793, S1
3794, S1
3795, S1
3796, S1
3797, S1
3798, S1
3799, S1
3800, S1
3801, S1
3802, S1
3803, S1
3804, S1
3805, S1
3806, S1
3807, S1
3808, S1
3809, S1
3810, S1
3811, S1
3812, S1
3813, S1
3814, S1
3815, S1
3816, S1
3817, S1
3818, S1
3819, S1
3820, S1
3821, S1
3822, S1
3823, S1
3824, S1
3825, S1
3826, S1
3827, S1
3828, S1
3829, S1
3830, S1
3831, S1
3832, S1
3833, S1
3834, S1
3835, S1
3836, S1
3837, S1
3838, S1
3839, S1
3840, S1
3841, S1
3842, S1
3843, S1
3844, S1
3845, S1
3846, S1
3847, S1
3848, S1
3849, S1
3850, S1
3851, S1
3852, S1
3853, S1
3854, S1
3855, S1
3856, S1
3857, S1
3858, S1
3859, S1
3860, S1
3861, S1
3862, S1
3863, S1
3864, S1
3865, S1
3866, S1
3867, S1
3868, S1
3869, S1
3870, S1
3871, S1
3872, S1
*MATERIAL, NAME=AL
*ELASTIC
70000, 0.33
*PLASTIC
100, 0
102.005739, 0.001
103.986239, 0.002
105.94186, 0.003
107.872956, 0.004
109.779878, 0.005
111.662972, 0.006
113.522577, 0.007
115.359028, 0.008
117.172657, 0.009
118.963788, 0.01
120.732743, 0.011
122.479839, 0.012
124.205387, 0.013
125.909695, 0.014
127.593067, 0.015
129.255801, 0.016
130.898192, 0.017
132.52053, 0.018
134.123101, 0.019
135.706188, 0.02
137.270069, 0.021
138.815018, 0.022
140.341305, 0.023
141.849196, 0.024
143.338954, 0.025
144.810839, 0.026
146.265105, 0.027
147.702003, 0.028
149.121781, 0.029
150.524685, 0.03
151.910955, 0.031
153.280827, 0.032
154.634537, 0.033
155.972315, 0.034
157.294389, 0.035
158.600982, 0.036
159.892316, 0.037
161.168608, 0.038
162.430073, 0.039
163.676923, 0.04
164.909367, 0.041
166.127609, 0.042
167.331854, 0.043
168.5223, 0.044
169.699144, 0.045
170.862581, 0.046
172.012803, 0.047
173.149997, 0.048
174.27435, 0.049
175.386045, 0.05
176.485262, 0.051
177.57218, 0.052
178.646975, 0.053
179.70982, 0.054
180.760884, 0.055
181.800336, 0.056
182.828343, 0.057
183.845067, 0.058
184.850669, 0.059
185.845308, 0.06
186.829141, 0.061
187.802322, 0.062
188.765003, 0.063
189.717334, 0.064
190.659462, 0.065
191.591533, 0.066
192.513692, 0.067
193.426078, 0.068
194.328833, 0.069
195.222092, 0.07
196.105993, 0.071
196.980668, 0.072
197.846249, 0.073
198.702866, 0.074
199.550646, 0.075
200.389717, 0.076
201.220202, 0.077
202.042224, 0.078
202.855904, 0.079
203.661361, 0.08
204.458711, 0.081
205.248072, 0.082
206.029556, 0.083
206.803277, 0.084
207.569345, 0.085
208.32787, 0.086
209.078958, 0.087
209.822717, 0.088
210.559251, 0.089
211.288663, 0.09
212.011054, 0.091
212.726526, 0.092
213.435176, 0.093
214.137102, 0.094
214.8324, 0.095
215.521165, 0.096
216.20349, 0.097
216.879466, 0.098
217.549185, 0.099
218.212736, 0.1
218.870207, 0.101
219.521684, 0.102
220.167254, 0.103
220.807, 0.104
221.441005, 0.105
222.069352, 0.106
222.692122, 0.107
223.309393, 0.108
223.921245, 0.109
224.527755, 0.11
225.128999, 0.111
225.725052, 0.112
226.315989, 0.113
226.901882, 0.114
227.482803, 0.115
228.058823, 0.116
228.630013, 0.117
229.196441, 0.118
229.758176, 0.119
230.315283, 0.12
230.86783, 0.121
231.415882, 0.122
231.959501, 0.123
232.498753, 0.124
233.033699, 0.125
233.5644, 0.126
234.090918, 0.127
234.613311, 0.128
235.13164, 0.129
235.645961, 0.13
236.156332, 0.131
236.66281, 0.132
237.16545, 0.133
237.664306, 0.134
238.159434, 0.135
238.650885, 0.136
239.138713, 0.137
239.622969, 0.138
240.103704, 0.139
240.580969, 0.14
241.054813, 0.141
241.525284, 0.142
241.992432, 0.143
242.456303, 0.144
242.916944, 0.145
243.374402, 0.146
243.828721, 0.147
244.279947, 0.148
244.728123, 0.149
245.173294, 0.15
245.615502, 0.151
246.054789, 0.152
246.491198, 0.153
246.924768, 0.154
247.355542, 0.155
247.783558, 0.156
248.208856, 0.157
248.631475, 0.158
249.051453, 0.159
249.468828, 0.16
249.883636, 0.161
250.295915, 0.162
250.705701, 0.163
251.113029, 0.164
251.517935, 0.165
251.920452, 0.166
252.320616, 0.167
252.718459, 0.168
253.114014, 0.169
253.507316, 0.17
253.898394, 0.171
254.287282, 0.172
254.674011, 0.173
255.058611, 0.174
255.441112, 0.175
255.821546, 0.176
256.19994, 0.177
256.576325, 0.178
256.95073, 0.179
257.323181, 0.18
257.693707, 0.181
258.062337, 0.182
258.429096, 0.183
258.794011, 0.184
259.157109, 0.185
259.518416, 0.186
259.877957, 0.187
260.235758, 0.188
260.591843, 0.189
260.946237, 0.19
261.298963, 0.191
261.650047, 0.192
261.999511, 0.193
262.347378, 0.194
262.693671, 0.195
263.038413, 0.196
263.381625, 0.197
263.72333, 0.198
264.063549, 0.199
264.402304, 0.2
264.739614, 0.201
265.075502, 0.202
265.409986, 0.203
265.743088, 0.204
266.074827, 0.205
266.405222, 0.206
266.734292, 0.207
267.062057, 0.208
267.388535, 0.209
267.713744, 0.21
268.037703, 0.211
268.36043, 0.212
268.681941, 0.213
269.002255, 0.214
269.321388, 0.215
269.639358, 0.216
269.95618, 0.217
270.271872, 0.218
270.586449, 0.219
270.899927, 0.22
271.212323, 0.221
271.523651, 0.222
271.833926, 0.223
272.143164, 0.224
272.45138, 0.225
272.758588, 0.226
273.064803, 0.227
273.370038, 0.228
273.674308, 0.229
273.977626, 0.23
274.280007, 0.231
274.581462, 0.232
274.882007, 0.233
275.181653, 0.234
275.480414, 0.235
275.778301, 0.236
276.075328, 0.237
276.371508, 0.238
276.666851, 0.239
276.961369, 0.24
277.255076, 0.241
277.547982, 0.242
277.840098, 0.243
278.131437, 0.244
278.422008, 0.245
278.711824, 0.246
279.000894, 0.247
279.28923, 0.248
279.576841, 0.249
279.863739, 0.25
280.149933, 0.251
280.435434, 0.252
280.720251, 0.253
281.004395, 0.254
281.287874, 0.255
281.570698, 0.256
281.852877, 0.257
282.13442, 0.258
282.415335, 0.259
282.695633, 0.26
282.975321, 0.261
283.254408, 0.262
283.532904, 0.263
283.810815, 0.264
284.088152, 0.265
284.364921, 0.266
284.641132, 0.267
284.916791, 0.268
285.191907, 0.269
285.466488, 0.27
285.740541, 0.271
286.014074, 0.272
286.287094, 0.273
286.559609, 0.274
286.831626, 0.275
287.103151, 0.276
287.374192, 0.277
287.644756, 0.278
287.91485, 0.279
288.18448, 0.28
288.453653, 0.281
288.722375, 0.282
288.990653, 0.283
289.258493, 0.284
289.525902, 0.285
289.792886, 0.286
290.05945, 0.287
290.325601, 0.288
290.591345, 0.289
290.856687, 0.29
291.121633, 0.291
291.386189, 0.292
291.65036, 0.293
291.914152, 0.294
292.17757, 0.295
292.44062, 0.296
292.703307, 0.297
292.965636, 0.298
293.227612, 0.299
293.48924, 0.3
296.087451, 0.31
298.655918, 0.32
301.198624, 0.33
303.71902, 0.34
306.220093, 0.35
308.70443, 0.36
311.174273, 0.37
313.631564, 0.38
316.077982, 0.39
318.514984, 0.4
320.943831, 0.41
323.365615, 0.42
325.781282, 0.43
328.191651, 0.44
330.597432, 0.45
332.999239, 0.46
335.397604, 0.47
337.792988, 0.48
340.18579, 0.49
342.576356, 0.5
344.964986, 0.51
347.351939, 0.52
349.737439, 0.53
352.121681, 0.54
354.504834, 0.55
356.887043, 0.56
359.268435, 0.57
361.649118, 0.58
364.029189, 0.59
366.408729, 0.6
368.787809, 0.61
371.166491, 0.62
373.544827, 0.63
375.922866, 0.64
378.300645, 0.65
380.6782, 0.66
383.055561, 0.67
385.432754, 0.68
387.809802, 0.69
390.186723, 0.7
392.563536, 0.71
394.940253, 0.72
397.316889, 0.73
399.693454, 0.74
402.069957, 0.75
404.446407, 0.76
406.822811, 0.77
409.199176, 0.78
411.575505, 0.79
413.951805, 0.8
416.328079, 0.81
418.70433, 0.82
421.080562, 0.83
423.456777, 0.84
425.832977, 0.85
428.209165, 0.86
430.585342, 0.87
432.961509, 0.88
435.337668, 0.89
437.71382, 0.9
440.089966, 0.91
442.466107, 0.92
444.842243, 0.93
447.218375, 0.94
449.594503, 0.95
451.970629, 0.96
454.346751, 0.97
456.722872, 0.98
459.098991, 0.99
461.475108, 1
463.851223, 1.01
466.227337, 1.02
468.603451, 1.03
470.979563, 1.04
473.355674, 1.05
475.731785, 1.06
478.107895, 1.07
480.484004, 1.08
482.860113, 1.09
485.236222, 1.1
487.61233, 1.11
489.988438, 1.12
492.364546, 1.13
494.740654, 1.14
497.116761, 1.15
499.492868, 1.16
501.868975, 1.17
504.245082, 1.18
506.621189, 1.19
508.997295, 1.2
511.373402, 1.21
513.749508, 1.22
516.125615, 1.23
518.501721, 1.24
520.877828, 1.25
523.253934, 1.26
525.63004, 1.27
528.006146, 1.28
530.382253, 1.29
532.758359, 1.3
535.134465, 1.31
537.510571, 1.32
539.886677, 1.33
542.262783, 1.34
544.63889, 1.35
547.014996, 1.36
549.391102, 1.37
551.767208, 1.38
554.143314, 1.39
556.51942, 1.4
558.895526, 1.41
561.271632, 1.42
563.647738, 1.43
566.023844, 1.44
568.399951, 1.45
570.776057, 1.46
573.152163, 1.47
575.528269, 1.48
577.904375, 1.49
580.280481, 1.5
582.656587, 1.51
585.032693, 1.52
587.408799, 1.53
589.784905, 1.54
592.161011, 1.55
594.537117, 1.56
596.913223, 1.57
599.289329, 1.58
601.665435, 1.59
604.041541, 1.6
606.417647, 1.61
608.793754, 1.62
611.16986, 1.63
613.545966, 1.64
615.922072, 1.65
618.298178, 1.66
620.674284, 1.67
623.05039, 1.68
625.426496, 1.69
627.802602, 1.7
630.178708, 1.71
632.554814, 1.72
634.93092, 1.73
637.307026, 1.74
639.683132, 1.75
642.059238, 1.76
644.435344, 1.77
646.81145, 1.78
649.187556, 1.79
651.563662, 1.8
653.939769, 1.81
656.315875, 1.82
658.691981, 1.83
661.068087, 1.84
663.444193, 1.85
665.820299, 1.86
668.196405, 1.87
670.572511, 1.88
672.948617, 1.89
675.324723, 1.9
677.700829, 1.91
680.076935, 1.92
682.453041, 1.93
684.829147, 1.94
687.205253, 1.95
689.581359, 1.96
691.957465, 1.97
694.333571, 1.98
696.709677, 1.99
699.085784, 2
701.46189, 2.01
703.837996, 2.02
706.214102, 2.03
708.590208, 2.04
710.966314, 2.05
713.34242, 2.06
715.718526, 2.07
718.094632, 2.08
720.470738, 2.09
722.846844, 2.1
725.22295, 2.11
727.599056, 2.12
729.975162, 2.13
732.351268, 2.14
734.727374, 2.15
737.10348, 2.16
739.479586, 2.17
741.855693, 2.18
744.231799, 2.19
746.607905, 2.2
748.984011, 2.21
751.360117, 2.22
753.736223, 2.23
756.112329, 2.24
758.488435, 2.25
760.864541, 2.26
763.240647, 2.27
765.616753, 2.28
767.992859, 2.29
770.368965, 2.3
772.745071, 2.31
775.121177, 2.32
777.497283, 2.33
779.873389, 2.34
782.249495, 2.35
784.625601, 2.36
787.001708, 2.37
789.377814, 2.38
791.75392, 2.39
794.130026, 2.4
796.506132, 2.41
798.882238, 2.42
801.258344, 2.43
803.63445, 2.44
806.010556, 2.45
808.386662, 2.46
810.762768, 2.47
813.138874, 2.48
815.51498, 2.49
817.891086, 2.5
820.267192, 2.51
822.643298, 2.52
825.019404, 2.53
827.39551, 2.54
829.771616, 2.55
832.147723, 2.56
834.523829, 2.57
836.899935, 2.58
839.276041, 2.59
841.652147, 2.6
844.028253, 2.61
846.404359, 2.62
848.780465, 2.63
851.156571, 2.64
853.532677, 2.65
855.908783, 2.66
858.284889, 2.67
860.660995, 2.68
863.037101, 2.69
865.413207, 2.7
867.789313, 2.71
870.165419, 2.72
872.541525, 2.73
874.917631, 2.74
877.293738, 2.75
879.669844, 2.76
882.04595, 2.77
884.422056, 2.78
886.798162, 2.79
889.174268, 2.8
891.550374, 2.81
893.92648, 2.82
896.302586, 2.83
898.678692, 2.84
901.054798, 2.85
903.430904, 2.86
905.80701, 2.87
908.183116, 2.88
910.559222, 2.89
912.935328, 2.9
915.311434, 2.91
917.68754, 2.92
920.063646, 2.93
922.439753, 2.94
924.815859, 2.95
927.191965, 2.96
929.568071, 2.97
931.944177, 2.98
934.320283, 2.99
936.696389, 3

*MATERIAL, NAME=STEEL
*ELASTIC
210000., 0.3
*SOLID SECTION, ELSET=SHEET, MATERIAL=AL
*SOLID SECTION, ELSET=TOOL, MATERIAL=STEEL
*SURFACE INTERACTION, NAME=SI
*SURFACE BEHAVIOR, PRESSURE-OVERCLOSURE=LINEAR
350000, 0.01
*FRICTION
0.1, 350000
*CONTACT PAIR, INTERACTION=SI, TYPE=NODE TO SURFACE
SSLAVE, SMASTER
*STEP, NLGEOM, INC=100000
*STATIC
0.0333333, 1.0, 3.33333e-06, 0.0333333
*BOUNDARY
*BOUNDARY
CLAMP, 1, 1, 0.0
CLAMP, 3, 3, 0.0
CLAMP, 2, 2, 0.0
*BOUNDARY
PUNCH, 1, 1, 0
PUNCH, 2, 2, 0
PUNCH, 3, 3, -3
*NODE PRINT, NSET=PUNCH, TOTALS=ONLY
RF
*NODE PRINT, NSET=NTOP
U
*EL PRINT, ELSET=SHEET
PEEQ
*END STEP
*STEP, NLGEOM, INC=100000
*STATIC
0.0166667, 1.0, 1.66667e-06, 0.0166667
*BOUNDARY
*BOUNDARY
CLAMP, 1, 1, 0.0
CLAMP, 3, 3, 0.0
CLAMP, 2, 2, 0.0
*BOUNDARY
PUNCH, 1, 1, 6
PUNCH, 2, 2, 0
PUNCH, 3, 3, -3
*NODE PRINT, NSET=PUNCH, TOTALS=ONLY
RF
*NODE PRINT, NSET=NTOP
U
*EL PRINT, ELSET=SHEET
PEEQ
*END STEP
*STEP, NLGEOM, INC=100000
*STATIC
0.025, 1.0, 2.5e-06, 0.025
*BOUNDARY
*BOUNDARY
CLAMP, 1, 1, 0.0
CLAMP, 3, 3, 0.0
CLAMP, 2, 2, 0.0
*BOUNDARY
PUNCH, 1, 1, 6
PUNCH, 2, 2, 0
PUNCH, 3, 3, 1
*NODE PRINT, NSET=PUNCH, TOTALS=ONLY
RF
*NODE PRINT, NSET=NTOP
U
*EL PRINT, ELSET=SHEET
PEEQ
*END STEP
*STEP, NLGEOM, INC=100000
*STATIC
0.05, 1.0, 1e-6, 0.05
*BOUNDARY, OP=NEW
PUNCH, 1, 1, 6
PUNCH, 2, 2, 0
PUNCH, 3, 3, 1
SUPA, 1, 3, 0.0
SUPB, 2, 3, 0.0
SUPC, 3, 3, 0.0
*NODE PRINT, NSET=PUNCH, TOTALS=ONLY
RF
*NODE PRINT, NSET=NTOP
U
*EL PRINT, ELSET=SHEET
PEEQ
*END STEP
