*HEADING
punch cross-check
*NODE, NSET=NSHEET
1, -20, 0, -1
2, -19.5, 0, -1
3, -19, 0, -1
4, -18.5, 0, -1
5, -18, 0, -1
6, -17.5, 0, -1
7, -17, 0, -1
8, -16.5, 0, -1
9, -16, 0, -1
10, -15.5, 0, -1
11, -15, 0, -1
12, -14.5, 0, -1
13, -14, 0, -1
14, -13.5, 0, -1
15, -13, 0, -1
16, -12.5, 0, -1
17, -12, 0, -1
18, -11.5, 0, -1
19, -11, 0, -1
20, -10.5, 0, -1
21, -10, 0, -1
22, -9.5, 0, -1
23, -9, 0, -1
24, -8.5, 0, -1
25, -8, 0, -1
26, -7.5, 0, -1
27, -7, 0, -1
28, -6.5, 0, -1
29, -6, 0, -1
30, -5.5, 0, -1
31, -5, 0, -1
32, -4.5, 0, -1
33, -4, 0, -1
34, -3.5, 0, -1
35, -3, 0, -1
36, -2.5, 0, -1
37, -2, 0, -1
38, -1.5, 0, -1
39, -1, 0, -1
40, -0.5, 0, -1
41, 0, 0, -1
42, 0.5, 0, -1
43, 1, 0, -1
44, 1.5, 0, -1
45, 2, 0, -1
46, 2.5, 0, -1
47, 3, 0, -1
48, 3.5, 0, -1
49, 4, 0, -1
50, 4.5, 0, -1
51, 5, 0, -1
52, 5.5, 0, -1
53, 6, 0, -1
54, 6.5, 0, -1
55, 7, 0, -1
56, 7.5, 0, -1
57, 8, 0, -1
58, 8.5, 0, -1
59, 9, 0, -1
60, 9.5, 0, -1
61, 10, 0, -1
62, 10.5, 0, -1
63, 11, 0, -1
64, 11.5, 0, -1
65, 12, 0, -1
66, 12.5, 0, -1
67, 13, 0, -1
68, 13.5, 0, -1
69, 14, 0, -1
70, 14.5, 0, -1
71, 15, 0, -1
72, 15.5, 0, -1
73, 16, 0, -1
74, 16.5, 0, -1
75, 17, 0, -1
76, 17.5, 0, -1
77, 18, 0, -1
78, 18.5, 0, -1
79, 19, 0, -1
80, 19.5, 0, -1
81, 20, 0, -1
82, -20, 0.5, -1
83, -19.5, 0.5, -1
84, -19, 0.5, -1
85, -18.5, 0.5, -1
86, -18, 0.5, -1
87, -17.5, 0.5, -1
88, -17, 0.5, -1
89, -16.5, 0.5, -1
90, -16, 0.5, -1
91, -15.5, 0.5, -1
92, -15, 0.5, -1
93, -14.5, 0.5, -1
94, -14, 0.5, -1
95, -13.5, 0.5, -1
96, -13, 0.5, -1
97, -12.5, 0.5, -1
98, -12, 0.5, -1
99, -11.5, 0.5, -1
100, -11, 0.5, -1
101, -10.5, 0.5, -1
102, -10, 0.5, -1
103, -9.5, 0.5, -1
104, -9, 0.5, -1
105, -8.5, 0.5, -1
106, -8, 0.5, -1
107, -7.5, 0.5, -1
108, -7, 0.5, -1
109, -6.5, 0.5, -1
110, -6, 0.5, -1
111, -5.5, 0.5, -1
112, -5, 0.5, -1
113, -4.5, 0.5, -1
114, -4, 0.5, -1
115, -3.5, 0.5, -1
116, -3, 0.5, -1
117, -2.5, 0.5, -1
118, -2, 0.5, -1
119, -1.5, 0.5, -1
120, -1, 0.5, -1
121, -0.5, 0.5, -1
122, 0, 0.5, -1
123, 0.5, 0.5, -1
124, 1, 0.5, -1
125, 1.5, 0.5, -1
126, 2, 0.5, -1
127, 2.5, 0.5, -1
128, 3, 0.5, -1
129, 3.5, 0.5, -1
130, 4, 0.5, -1
131, 4.5, 0.5, -1
132, 5, 0.5, -1
133, 5.5, 0.5, -1
134, 6, 0.5, -1
135, 6.5, 0.5, -1
136, 7, 0.5, -1
137, 7.5, 0.5, -1
138, 8, 0.5, -1
139, 8.5, 0.5, -1
140, 9, 0.5, -1
141, 9.5, 0.5, -1
142, 10, 0.5, -1
143, 10.5, 0.5, -1
144, 11, 0.5, -1
145, 11.5, 0.5, -1
146, 12, 0.5, -1
147, 12.5, 0.5, -1
148, 13, 0.5, -1
149, 13.5, 0.5, -1
150, 14, 0.5, -1
151, 14.5, 0.5, -1
152, 15, 0.5, -1
153, 15.5, 0.5, -1
154, 16, 0.5, -1
155, 16.5, 0.5, -1
156, 17, 0.5, -1
157, 17.5, 0.5, -1
158, 18, 0.5, -1
159, 18.5, 0.5, -1
160, 19, 0.5, -1
161, 19.5, 0.5, -1
162, 20, 0.5, -1
163, -20, 0, -0.75
164, -19.5, 0, -0.75
165, -19, 0, -0.75
166, -18.5, 0, -0.75
167, -18, 0, -0.75
168, -17.5, 0, -0.75
169, -17, 0, -0.75
170, -16.5, 0, -0.75
171, -16, 0, -0.75
172, -15.5, 0, -0.75
173, -15, 0, -0.75
174, -14.5, 0, -0.75
175, -14, 0, -0.75
176, -13.5, 0, -0.75
177, -13, 0, -0.75
178, -12.5, 0, -0.75
179, -12, 0, -0.75
180, -11.5, 0, -0.75
181, -11, 0, -0.75
182, -10.5, 0, -0.75
183, -10, 0, -0.75
184, -9.5, 0, -0.75
185, -9, 0, -0.75
186, -8.5, 0, -0.75
187, -8, 0, -0.75
188, -7.5, 0, -0.75
189, -7, 0, -0.75
190, -6.5, 0, -0.75
191, -6, 0, -0.75
192, -5.5, 0, -0.75
193, -5, 0, -0.75
194, -4.5, 0, -0.75
195, -4, 0, -0.75
196, -3.5, 0, -0.75
197, -3, 0, -0.75
198, -2.5, 0, -0.75
199, -2, 0, -0.75
200, -1.5, 0, -0.75
201, -1, 0, -0.75
202, -0.5, 0, -0.75
203, 0, 0, -0.75
204, 0.5, 0, -0.75
205, 1, 0, -0.75
206, 1.5, 0, -0.75
207, 2, 0, -0.75
208, 2.5, 0, -0.75
209, 3, 0, -0.75
210, 3.5, 0, -0.75
211, 4, 0, -0.75
212, 4.5, 0, -0.75
213, 5, 0, -0.75
214, 5.5, 0, -0.75
215, 6, 0, -0.75
216, 6.5, 0, -0.75
217, 7, 0, -0.75
218, 7.5, 0, -0.75
219, 8, 0, -0.75
220, 8.5, 0, -0.75
221, 9, 0, -0.75
222, 9.5, 0, -0.75
223, 10, 0, -0.75
224, 10.5, 0, -0.75
225, 11, 0, -0.75
226, 11.5, 0, -0.75
227, 12, 0, -0.75
228, 12.5, 0, -0.75
229, 13, 0, -0.75
230, 13.5, 0, -0.75
231, 14, 0, -0.75
232, 14.5, 0, -0.75
233, 15, 0, -0.75
234, 15.5, 0, -0.75
235, 16, 0, -0.75
236, 16.5, 0, -0.75
237, 17, 0, -0.75
238, 17.5, 0, -0.75
239, 18, 0, -0.75
240, 18.5, 0, -0.75
241, 19, 0, -0.75
242, 19.5, 0, -0.75
243, 20, 0, -0.75
244, -20, 0.5, -0.75
245, -19.5, 0.5, -0.75
246, -19, 0.5, -0.75
247, -18.5, 0.5, -0.75
248, -18, 0.5, -0.75
249, -17.5, 0.5, -0.75
250, -17, 0.5, -0.75
251, -16.5, 0.5, -0.75
252, -16, 0.5, -0.75
253, -15.5, 0.5, -0.75
254, -15, 0.5, -0.75
255, -14.5, 0.5, -0.75
256, -14, 0.5, -0.75
257, -13.5, 0.5, -0.75
258, -13, 0.5, -0.75
259, -12.5, 0.5, -0.75
260, -12, 0.5, -0.75
261, -11.5, 0.5, -0.75
262, -11, 0.5, -0.75
263, -10.5, 0.5, -0.75
264, -10, 0.5, -0.75
265, -9.5, 0.5, -0.75
266, -9, 0.5, -0.75
267, -8.5, 0.5, -0.75
268, -8, 0.5, -0.75
269, -7.5, 0.5, -0.75
270, -7, 0.5, -0.75
271, -6.5, 0.5, -0.75
272, -6, 0.5, -0.75
273, -5.5, 0.5, -0.75
274, -5, 0.5, -0.75
275, -4.5, 0.5, -0.75
276, -4, 0.5, -0.75
277, -3.5, 0.5, -0.75
278, -3, 0.5, -0.75
279, -2.5, 0.5, -0.75
280, -2, 0.5, -0.75
281, -1.5, 0.5, -0.75
282, -1, 0.5, -0.75
283, -0.5, 0.5, -0.75
284, 0, 0.5, -0.75
285, 0.5, 0.5, -0.75
286, 1, 0.5, -0.75
287, 1.5, 0.5, -0.75
288, 2, 0.5, -0.75
289, 2.5, 0.5, -0.75
290, 3, 0.5, -0.75
291, 3.5, 0.5, -0.75
292, 4, 0.5, -0.75
293, 4.5, 0.5, -0.75
294, 5, 0.5, -0.75
295, 5.5, 0.5, -0.75
296, 6, 0.5, -0.75
297, 6.5, 0.5, -0.75
298, 7, 0.5, -0.75
299, 7.5, 0.5, -0.75
300, 8, 0.5, -0.75
301, 8.5, 0.5, -0.75
302, 9, 0.5, -0.75
303, 9.5, 0.5, -0.75
304, 10, 0.5, -0.75
305, 10.5, 0.5, -0.75
306, 11, 0.5, -0.75
307, 11.5, 0.5, -0.75
308, 12, 0.5, -0.75
309, 12.5, 0.5, -0.75
310, 13, 0.5, -0.75
311, 13.5, 0.5, -0.75
312, 14, 0.5, -0.75
313, 14.5, 0.5, -0.75
314, 15, 0.5, -0.75
315, 15.5, 0.5, -0.75
316, 16, 0.5, -0.75
317, 16.5, 0.5, -0.75
318, 17, 0.5, -0.75
319, 17.5, 0.5, -0.75
320, 18, 0.5, -0.75
321, 18.5, 0.5, -0.75
322, 19, 0.5, -0.75
323, 19.5, 0.5, -0.75
324, 20, 0.5, -0.75
325, -20, 0, -0.5
326, -19.5, 0, -0.5
327, -19, 0, -0.5
328, -18.5, 0, -0.5
329, -18, 0, -0.5
330, -17.5, 0, -0.5
331, -17, 0, -0.5
332, -16.5, 0, -0.5
333, -16, 0, -0.5
334, -15.5, 0, -0.5
335, -15, 0, -0.5
336, -14.5, 0, -0.5
337, -14, 0, -0.5
338, -13.5, 0, -0.5
339, -13, 0, -0.5
340, -12.5, 0, -0.5
341, -12, 0, -0.5
342, -11.5, 0, -0.5
343, -11, 0, -0.5
344, -10.5, 0, -0.5
345, -10, 0, -0.5
346, -9.5, 0, -0.5
347, -9, 0, -0.5
348, -8.5, 0, -0.5
349, -8, 0, -0.5
350, -7.5, 0, -0.5
351, -7, 0, -0.5
352, -6.5, 0, -0.5
353, -6, 0, -0.5
354, -5.5, 0, -0.5
355, -5, 0, -0.5
356, -4.5, 0, -0.5
357, -4, 0, -0.5
358, -3.5, 0, -0.5
359, -3, 0, -0.5
360, -2.5, 0, -0.5
361, -2, 0, -0.5
362, -1.5, 0, -0.5
363, -1, 0, -0.5
364, -0.5, 0, -0.5
365, 0, 0, -0.5
366, 0.5, 0, -0.5
367, 1, 0, -0.5
368, 1.5, 0, -0.5
369, 2, 0, -0.5
370, 2.5, 0, -0.5
371, 3, 0, -0.5
372, 3.5, 0, -0.5
373, 4, 0, -0.5
374, 4.5, 0, -0.5
375, 5, 0, -0.5
376, 5.5, 0, -0.5
377, 6, 0, -0.5
378, 6.5, 0, -0.5
379, 7, 0, -0.5
380, 7.5, 0, -0.5
381, 8, 0, -0.5
382, 8.5, 0, -0.5
383, 9, 0, -0.5
384, 9.5, 0, -0.5
385, 10, 0, -0.5
386, 10.5, 0, -0.5
387, 11, 0, -0.5
388, 11.5, 0, -0.5
389, 12, 0, -0.5
390, 12.5, 0, -0.5
391, 13, 0, -0.5
392, 13.5, 0, -0.5
393, 14, 0, -0.5
394, 14.5, 0, -0.5
395, 15, 0, -0.5
396, 15.5, 0, -0.5
397, 16, 0, -0.5
398, 16.5, 0, -0.5
399, 17, 0, -0.5
400, 17.5, 0, -0.5
401, 18, 0, -0.5
402, 18.5, 0, -0.5
403, 19, 0, -0.5
404, 19.5, 0, -0.5
405, 20, 0, -0.5
406, -20, 0.5, -0.5
407, -19.5, 0.5, -0.5
408, -19, 0.5, -0.5
409, -18.5, 0.5, -0.5
410, -18, 0.5, -0.5
411, -17.5, 0.5, -0.5
412, -17, 0.5, -0.5
413, -16.5, 0.5, -0.5
414, -16, 0.5, -0.5
415, -15.5, 0.5, -0.5
416, -15, 0.5, -0.5
417, -14.5, 0.5, -0.5
418, -14, 0.5, -0.5
419, -13.5, 0.5, -0.5
420, -13, 0.5, -0.5
421, -12.5, 0.5, -0.5
422, -12, 0.5, -0.5
423, -11.5, 0.5, -0.5
424, -11, 0.5, -0.5
425, -10.5, 0.5, -0.5
426, -10, 0.5, -0.5
427, -9.5, 0.5, -0.5
428, -9, 0.5, -0.5
429, -8.5, 0.5, -0.5
430, -8, 0.5, -0.5
431, -7.5, 0.5, -0.5
432, -7, 0.5, -0.5
433, -6.5, 0.5, -0.5
434, -6, 0.5, -0.5
435, -5.5, 0.5, -0.5
436, -5, 0.5, -0.5
437, -4.5, 0.5, -0.5
438, -4, 0.5, -0.5
439, -3.5, 0.5, -0.5
440, -3, 0.5, -0.5
441, -2.5, 0.5, -0.5
442, -2, 0.5, -0.5
443, -1.5, 0.5, -0.5
444, -1, 0.5, -0.5
445, -0.5, 0.5, -0.5
446, 0, 0.5, -0.5
447, 0.5, 0.5, -0.5
448, 1, 0.5, -0.5
449, 1.5, 0.5, -0.5
450, 2, 0.5, -0.5
451, 2.5, 0.5, -0.5
452, 3, 0.5, -0.5
453, 3.5, 0.5, -0.5
454, 4, 0.5, -0.5
455, 4.5, 0.5, -0.5
456, 5, 0.5, -0.5
457, 5.5, 0.5, -0.5
458, 6, 0.5, -0.5
459, 6.5, 0.5, -0.5
460, 7, 0.5, -0.5
461, 7.5, 0.5, -0.5
462, 8, 0.5, -0.5
463, 8.5, 0.5, -0.5
464, 9, 0.5, -0.5
465, 9.5, 0.5, -0.5
466, 10, 0.5, -0.5
467, 10.5, 0.5, -0.5
468, 11, 0.5, -0.5
469, 11.5, 0.5, -0.5
470, 12, 0.5, -0.5
471, 12.5, 0.5, -0.5
472, 13, 0.5, -0.5
473, 13.5, 0.5, -0.5
474, 14, 0.5, -0.5
475, 14.5, 0.5, -0.5
476, 15, 0.5, -0.5
477, 15.5, 0.5, -0.5
478, 16, 0.5, -0.5
479, 16.5, 0.5, -0.5
480, 17, 0.5, -0.5
481, 17.5, 0.5, -0.5
482, 18, 0.5, -0.5
483, 18.5, 0.5, -0.5
484, 19, 0.5, -0.5
485, 19.5, 0.5, -0.5
486, 20, 0.5, -0.5
487, -20, 0, -0.25
488, -19.5, 0, -0.25
489, -19, 0, -0.25
490, -18.5, 0, -0.25
491, -18, 0, -0.25
492, -17.5, 0, -0.25
493, -17, 0, -0.25
494, -16.5, 0, -0.25
495, -16, 0, -0.25
496, -15.5, 0, -0.25
497, -15, 0, -0.25
498, -14.5, 0, -0.25
499, -14, 0, -0.25
500, -13.5, 0, -0.25
501, -13, 0, -0.25
502, -12.5, 0, -0.25
503, -12, 0, -0.25
504, -11.5, 0, -0.25
505, -11, 0, -0.25
506, -10.5, 0, -0.25
507, -10, 0, -0.25
508, -9.5, 0, -0.25
509, -9, 0, -0.25
510, -8.5, 0, -0.25
511, -8, 0, -0.25
512, -7.5, 0, -0.25
513, -7, 0, -0.25
514, -6.5, 0, -0.25
515, -6, 0, -0.25
516, -5.5, 0, -0.25
517, -5, 0, -0.25
518, -4.5, 0, -0.25
519, -4, 0, -0.25
520, -3.5, 0, -0.25
521, -3, 0, -0.25
522, -2.5, 0, -0.25
523, -2, 0, -0.25
524, -1.5, 0, -0.25
525, -1, 0, -0.25
526, -0.5, 0, -0.25
527, 0, 0, -0.25
528, 0.5, 0, -0.25
529, 1, 0, -0.25
530, 1.5, 0, -0.25
531, 2, 0, -0.25
532, 2.5, 0, -0.25
533, 3, 0, -0.25
534, 3.5, 0, -0.25
535, 4, 0, -0.25
536, 4.5, 0, -0.25
537, 5, 0, -0.25
538, 5.5, 0, -0.25
539, 6, 0, -0.25
540, 6.5, 0, -0.25
541, 7, 0, -0.25
542, 7.5, 0, -0.25
543, 8, 0, -0.25
544, 8.5, 0, -0.25
545, 9, 0, -0.25
546, 9.5, 0, -0.25
547, 10, 0, -0.25
548, 10.5, 0, -0.25
549, 11, 0, -0.25
550, 11.5, 0, -0.25
551, 12, 0, -0.25
552, 12.5, 0, -0.25
553, 13, 0, -0.25
554, 13.5, 0, -0.25
555, 14, 0, -0.25
556, 14.5, 0, -0.25
557, 15, 0, -0.25
558, 15.5, 0, -0.25
559, 16, 0, -0.25
560, 16.5, 0, -0.25
561, 17, 0, -0.25
562, 17.5, 0, -0.25
563, 18, 0, -0.25
564, 18.5, 0, -0.25
565, 19, 0, -0.25
566, 19.5, 0, -0.25
567, 20, 0, -0.25
568, -20, 0.5, -0.25
569, -19.5, 0.5, -0.25
570, -19, 0.5, -0.25
571, -18.5, 0.5, -0.25
572, -18, 0.5, -0.25
573, -17.5, 0.5, -0.25
574, -17, 0.5, -0.25
575, -16.5, 0.5, -0.25
576, -16, 0.5, -0.25
577, -15.5, 0.5, -0.25
578, -15, 0.5, -0.25
579, -14.5, 0.5, -0.25
580, -14, 0.5, -0.25
581, -13.5, 0.5, -0.25
582, -13, 0.5, -0.25
583, -12.5, 0.5, -0.25
584, -12, 0.5, -0.25
585, -11.5, 0.5, -0.25
586, -11, 0.5, -0.25
587, -10.5, 0.5, -0.25
588, -10, 0.5, -0.25
589, -9.5, 0.5, -0.25
590, -9, 0.5, -0.25
591, -8.5, 0.5, -0.25
592, -8, 0.5, -0.25
593, -7.5, 0.5, -0.25
594, -7, 0.5, -0.25
595, -6.5, 0.5, -0.25
596, -6, 0.5, -0.25
597, -5.5, 0.5, -0.25
598, -5, 0.5, -0.25
599, -4.5, 0.5, -0.25
600, -4, 0.5, -0.25
601, -3.5, 0.5, -0.25
602, -3, 0.5, -0.25
603, -2.5, 0.5, -0.25
604, -2, 0.5, -0.25
605, -1.5, 0.5, -0.25
606, -1, 0.5, -0.25
607, -0.5, 0.5, -0.25
608, 0, 0.5, -0.25
609, 0.5, 0.5, -0.25
610, 1, 0.5, -0.25
611, 1.5, 0.5, -0.25
612, 2, 0.5, -0.25
613, 2.5, 0.5, -0.25
614, 3, 0.5, -0.25
615, 3.5, 0.5, -0.25
616, 4, 0.5, -0.25
617, 4.5, 0.5, -0.25
618, 5, 0.5, -0.25
619, 5.5, 0.5, -0.25
620, 6, 0.5, -0.25
621, 6.5, 0.5, -0.25
622, 7, 0.5, -0.25
623, 7.5, 0.5, -0.25
624, 8, 0.5, -0.25
625, 8.5, 0.5, -0.25
626, 9, 0.5, -0.25
627, 9.5, 0.5, -0.25
628, 10, 0.5, -0.25
629, 10.5, 0.5, -0.25
630, 11, 0.5, -0.25
631, 11.5, 0.5, -0.25
632, 12, 0.5, -0.25
633, 12.5, 0.5, -0.25
634, 13, 0.5, -0.25
635, 13.5, 0.5, -0.25
636, 14, 0.5, -0.25
637, 14.5, 0.5, -0.25
638, 15, 0.5, -0.25
639, 15.5, 0.5, -0.25
640, 16, 0.5, -0.25
641, 16.5, 0.5, -0.25
642, 17, 0.5, -0.25
643, 17.5, 0.5, -0.25
644, 18, 0.5, -0.25
645, 18.5, 0.5, -0.25
646, 19, 0.5, -0.25
647, 19.5, 0.5, -0.25
648, 20, 0.5, -0.25
649, -20, 0, 0
650, -19.5, 0, 0
651, -19, 0, 0
652, -18.5, 0, 0
653, -18, 0, 0
654, -17.5, 0, 0
655, -17, 0, 0
656, -16.5, 0, 0
657, -16, 0, 0
658, -15.5, 0, 0
659, -15, 0, 0
660, -14.5, 0, 0
661, -14, 0, 0
662, -13.5, 0, 0
663, -13, 0, 0
664, -12.5, 0, 0
665, -12, 0, 0
666, -11.5, 0, 0
667, -11, 0, 0
668, -10.5, 0, 0
669, -10, 0, 0
670, -9.5, 0, 0
671, -9, 0, 0
672, -8.5, 0, 0
673, -8, 0, 0
674, -7.5, 0, 0
675, -7, 0, 0
676, -6.5, 0, 0
677, -6, 0, 0
678, -5.5, 0, 0
679, -5, 0, 0
680, -4.5, 0, 0
681, -4, 0, 0
682, -3.5, 0, 0
683, -3, 0, 0
684, -2.5, 0, 0
685, -2, 0, 0
686, -1.5, 0, 0
687, -1, 0, 0
688, -0.5, 0, 0
689, 0, 0, 0
690, 0.5, 0, 0
691, 1, 0, 0
692, 1.5, 0, 0
693, 2, 0, 0
694, 2.5, 0, 0
695, 3, 0, 0
696, 3.5, 0, 0
697, 4, 0, 0
698, 4.5, 0, 0
699, 5, 0, 0
700, 5.5, 0, 0
701, 6, 0, 0
702, 6.5, 0, 0
703, 7, 0, 0
704, 7.5, 0, 0
705, 8, 0, 0
706, 8.5, 0, 0
707, 9, 0, 0
708, 9.5, 0, 0
709, 10, 0, 0
710, 10.5, 0, 0
711, 11, 0, 0
712, 11.5, 0, 0
713, 12, 0, 0
714, 12.5, 0, 0
715, 13, 0, 0
716, 13.5, 0, 0
717, 14, 0, 0
718, 14.5, 0, 0
719, 15, 0, 0
720, 15.5, 0, 0
721, 16, 0, 0
722, 16.5, 0, 0
723, 17, 0, 0
724, 17.5, 0, 0
725, 18, 0, 0
726, 18.5, 0, 0
727, 19, 0, 0
728, 19.5, 0, 0
729, 20, 0, 0
730, -20, 0.5, 0
731, -19.5, 0.5, 0
732, -19, 0.5, 0
733, -18.5, 0.5, 0
734, -18, 0.5, 0
735, -17.5, 0.5, 0
736, -17, 0.5, 0
737, -16.5, 0.5, 0
738, -16, 0.5, 0
739, -15.5, 0.5, 0
740, -15, 0.5, 0
741, -14.5, 0.5, 0
742, -14, 0.5, 0
743, -13.5, 0.5, 0
744, -13, 0.5, 0
745, -12.5, 0.5, 0
746, -12, 0.5, 0
747, -11.5, 0.5, 0
748, -11, 0.5, 0
749, -10.5, 0.5, 0
750, -10, 0.5, 0
751, -9.5, 0.5, 0
752, -9, 0.5, 0
753, -8.5, 0.5, 0
754, -8, 0.5, 0
755, -7.5, 0.5, 0
756, -7, 0.5, 0
757, -6.5, 0.5, 0
758, -6, 0.5, 0
759, -5.5, 0.5, 0
760, -5, 0.5, 0
761, -4.5, 0.5, 0
762, -4, 0.5, 0
763, -3.5, 0.5, 0
764, -3, 0.5, 0
765, -2.5, 0.5, 0
766, -2, 0.5, 0
767, -1.5, 0.5, 0
768, -1, 0.5, 0
769, -0.5, 0.5, 0
770, 0, 0.5, 0
771, 0.5, 0.5, 0
772, 1, 0.5, 0
773, 1.5, 0.5, 0
774, 2, 0.5, 0
775, 2.5, 0.5, 0
776, 3, 0.5, 0
777, 3.5, 0.5, 0
778, 4, 0.5, 0
779, 4.5, 0.5, 0
780, 5, 0.5, 0
781, 5.5, 0.5, 0
782, 6, 0.5, 0
783, 6.5, 0.5, 0
784, 7, 0.5, 0
785, 7.5, 0.5, 0
786, 8, 0.5, 0
787, 8.5, 0.5, 0
788, 9, 0.5, 0
789, 9.5, 0.5, 0
790, 10, 0.5, 0
791, 10.5, 0.5, 0
792, 11, 0.5, 0
793, 11.5, 0.5, 0
794, 12, 0.5, 0
795, 12.5, 0.5, 0
796, 13, 0.5, 0
797, 13.5, 0.5, 0
798, 14, 0.5, 0
799, 14.5, 0.5, 0
800, 15, 0.5, 0
801, 15.5, 0.5, 0
802, 16, 0.5, 0
803, 16.5, 0.5, 0
804, 17, 0.5, 0
805, 17.5, 0.5, 0
806, 18, 0.5, 0
807, 18.5, 0.5, 0
808, 19, 0.5, 0
809, 19.5, 0.5, 0
810, 20, 0.5, 0
*NODE, NSET=PUNCH
811, -3.93923101205, -1, 4.69459271067
812, -3.95075336238, -1, 4.62573786016
813, -3.96107227497, -1, 4.55669240384
814, -3.97018460657, -1, 4.48747737362
815, -3.97808758147, -1, 4.41811385307
816, -3.98477879237, -1, 4.34862297099
817, -3.99025620104, -1, 4.27902589498
818, -3.99451813902, -1, 4.20934382497
819, -3.99756330808, -1, 4.13959798681
820, -3.99939078063, -1, 4.06980962575
821, -4, -1, 4
822, -3.99939078063, -1, 3.93019037425
823, -3.99756330808, -1, 3.86040201319
824, -3.99451813902, -1, 3.79065617503
825, -3.99025620104, -1, 3.72097410502
826, -3.98477879237, -1, 3.65137702901
827, -3.97808758147, -1, 3.58188614693
828, -3.97018460657, -1, 3.51252262638
829, -3.96107227497, -1, 3.44330759616
830, -3.95075336238, -1, 3.37426213984
831, -3.93923101205, -1, 3.30540728933
832, -3.92650873379, -1, 3.23676401849
833, -3.91259040294, -1, 3.16835323673
834, -3.89748025914, -1, 3.10019578262
835, -3.8811829051, -1, 3.0323124176
836, -3.86370330516, -1, 2.96472381959
837, -3.84504678375, -1, 2.89745057673
838, -3.82521902385, -1, 2.83051318111
839, -3.80422606518, -1, 2.7639320225
840, -3.7820743024, -1, 2.69772738217
841, -3.75877048314, -1, 2.6319194267
842, -3.73432170599, -1, 2.56652820182
843, -3.70873541827, -1, 2.50157362634
844, -3.68201941381, -1, 2.43707548604
845, -3.65418183057, -1, 2.3730534277
846, -3.62523114815, -1, 2.30952695304
847, -3.5951761852, -1, 2.24651541284
848, -3.56402609675, -1, 2.18403800104
849, -3.53179037144, -1, 2.12211374886
850, -3.49847882856, -1, 2.06076151901
851, -3.46410161514, -1, 2
852, -3.42866920281, -1, 1.93984770036
853, -3.39219238463, -1, 1.88032294307
854, -3.35468227178, -1, 1.82144385994
855, -3.31615029022, -1, 1.76322838612
856, -3.27660817716, -1, 1.7056942546
857, -3.2360679775, -1, 1.64885899083
858, -3.19454204019, -1, 1.59273990739
859, -3.15204301443, -1, 1.5373540987
860, -3.10858384583, -1, 1.4827184358
861, -3.06417777248, -1, 1.42884956125
862, -3.01883832089, -1, 1.37576388404
863, -2.97257930191, -1, 1.32347757456
864, -2.92541480648, -1, 1.27200655975
865, -2.87735920135, -1, 1.22136651816
866, -2.82842712475, -1, 1.17157287525
867, -2.77863348184, -1, 1.12264079865
868, -2.72799344025, -1, 1.07458519352
869, -2.67652242544, -1, 1.02742069809
870, -2.62423611596, -1, 0.981161679109
871, -2.57115043875, -1, 0.935822227524
872, -2.5172815642, -1, 0.891416154172
873, -2.4626459013, -1, 0.847956985573
874, -2.40726009261, -1, 0.805457959811
875, -2.35114100917, -1, 0.7639320225
876, -2.2943057454, -1, 0.723391822844
877, -2.23677161388, -1, 0.68384970978
878, -2.17855614006, -1, 0.645317728218
879, -2.11967705693, -1, 0.607807615374
880, -2.06015229964, -1, 0.571330797192
881, -2, -1, 0.535898384862
882, -1.93923848099, -1, 0.501521171442
883, -1.87788625114, -1, 0.468209628564
884, -1.81596199896, -1, 0.435973903247
885, -1.75348458716, -1, 0.404823814803
886, -1.69047304696, -1, 0.374768851853
887, -1.6269465723, -1, 0.34581816943
888, -1.56292451396, -1, 0.31798058619
889, -1.49842637366, -1, 0.291264581733
890, -1.43347179818, -1, 0.265678294011
891, -1.3680805733, -1, 0.241229516856
892, -1.30227261783, -1, 0.217925697603
893, -1.2360679775, -1, 0.195773934819
894, -1.16948681889, -1, 0.174780976148
895, -1.10254942327, -1, 0.154953216247
896, -1.03527618041, -1, 0.136296694844
897, -0.967687582399, -1, 0.118817094896
898, -0.899804217375, -1, 0.102519740859
899, -0.831646763271, -1, 0.0874095970648
900, -0.763235981506, -1, 0.0734912662093
901, -0.694592710668, -1, 0.0607689879512
902, -0.625737860161, -1, 0.0492466376194
903, -0.55669240384, -1, 0.0389277250337
904, -0.487477373621, -1, 0.0298153934347
905, -0.418113853071, -1, 0.0219124185269
906, -0.348622970991, -1, 0.015221207633
907, -0.279025894977, -1, 0.0097437989607
908, -0.209343824972, -1, 0.0054818609817
909, -0.13959798681, -1, 0.00243669192362
910, -0.0698096257491, -1, 0.000609219374435
911, 0, -1, 0
912, 0.0698096257491, -1, 0.000609219374435
913, 0.13959798681, -1, 0.00243669192362
914, 0.209343824972, -1, 0.0054818609817
915, 0.279025894977, -1, 0.0097437989607
916, 0.348622970991, -1, 0.015221207633
917, 0.418113853071, -1, 0.0219124185269
918, 0.487477373621, -1, 0.0298153934347
919, 0.55669240384, -1, 0.0389277250337
920, 0.625737860161, -1, 0.0492466376194
921, 0.694592710668, -1, 0.0607689879512
922, 0.763235981506, -1, 0.0734912662093
923, 0.831646763271, -1, 0.0874095970648
924, 0.899804217375, -1, 0.102519740859
925, 0.967687582399, -1, 0.118817094896
926, 1.03527618041, -1, 0.136296694844
927, 1.10254942327, -1, 0.154953216247
928, 1.16948681889, -1, 0.174780976148
929, 1.2360679775, -1, 0.195773934819
930, 1.30227261783, -1, 0.217925697603
931, 1.3680805733, -1, 0.241229516856
932, 1.43347179818, -1, 0.265678294011
933, 1.49842637366, -1, 0.291264581733
934, 1.56292451396, -1, 0.31798058619
935, 1.6269465723, -1, 0.34581816943
936, 1.69047304696, -1, 0.374768851853
937, 1.75348458716, -1, 0.404823814803
938, 1.81596199896, -1, 0.435973903247
939, 1.87788625114, -1, 0.468209628564
940, 1.93923848099, -1, 0.501521171442
941, 2, -1, 0.535898384862
942, 2.06015229964, -1, 0.571330797192
943, 2.11967705693, -1, 0.607807615374
944, 2.17855614006, -1, 0.645317728218
945, 2.23677161388, -1, 0.68384970978
946, 2.2943057454, -1, 0.723391822844
947, 2.35114100917, -1, 0.7639320225
948, 2.40726009261, -1, 0.805457959811
949, 2.4626459013, -1, 0.847956985573
950, 2.5172815642, -1, 0.891416154172
951, 2.57115043875, -1, 0.935822227524
952, 2.62423611596, -1, 0.981161679109
953, 2.67652242544, -1, 1.02742069809
954, 2.72799344025, -1, 1.07458519352
955, 2.77863348184, -1, 1.12264079865
956, 2.82842712475, -1, 1.17157287525
957, 2.87735920135, -1, 1.22136651816
958, 2.92541480648, -1, 1.27200655975
959, 2.97257930191, -1, 1.32347757456
960, 3.01883832089, -1, 1.37576388404
961, 3.06417777248, -1, 1.42884956125
962, 3.10858384583, -1, 1.4827184358
963, 3.15204301443, -1, 1.5373540987
964, 3.19454204019, -1, 1.59273990739
965, 3.2360679775, -1, 1.64885899083
966, 3.27660817716, -1, 1.7056942546
967, 3.31615029022, -1, 1.76322838612
968, 3.35468227178, -1, 1.82144385994
969, 3.39219238463, -1, 1.88032294307
970, 3.42866920281, -1, 1.93984770036
971, 3.46410161514, -1, 2
972, 3.49847882856, -1, 2.06076151901
973, 3.53179037144, -1, 2.12211374886
974, 3.56402609675, -1, 2.18403800104
975, 3.5951761852, -1, 2.24651541284
976, 3.62523114815, -1, 2.30952695304
977, 3.65418183057, -1, 2.3730534277
978, 3.68201941381, -1, 2.43707548604
979, 3.70873541827, -1, 2.50157362634
980, 3.73432170599, -1, 2.56652820182
981, 3.75877048314, -1, 2.6319194267
982, 3.7820743024, -1, 2.69772738217
983, 3.80422606518, -1, 2.7639320225
984, 3.82521902385, -1, 2.83051318111
985, 3.84504678375, -1, 2.89745057673
986, 3.86370330516, -1, 2.96472381959
987, 3.8811829051, -1, 3.0323124176
988, 3.89748025914, -1, 3.10019578262
989, 3.91259040294, -1, 3.16835323673
990, 3.92650873379, -1, 3.23676401849
991, 3.93923101205, -1, 3.30540728933
992, 3.95075336238, -1, 3.37426213984
993, 3.96107227497, -1, 3.44330759616
994, 3.97018460657, -1, 3.51252262638
995, 3.97808758147, -1, 3.58188614693
996, 3.98477879237, -1, 3.65137702901
997, 3.99025620104, -1, 3.72097410502
998, 3.99451813902, -1, 3.79065617503
999, 3.99756330808, -1, 3.86040201319
1000, 3.99939078063, -1, 3.93019037425
1001, 4, -1, 4
1002, 3.99939078063, -1, 4.06980962575
1003, 3.99756330808, -1, 4.13959798681
1004, 3.99451813902, -1, 4.20934382497
1005, 3.99025620104, -1, 4.27902589498
1006, 3.98477879237, -1, 4.34862297099
1007, 3.97808758147, -1, 4.41811385307
1008, 3.97018460657, -1, 4.48747737362
1009, 3.96107227497, -1, 4.55669240384
1010, 3.95075336238, -1, 4.62573786016
1011, 3.93923101205, -1, 4.69459271067
1012, -3.93923101205, 1.5, 4.69459271067
1013, -3.95075336238, 1.5, 4.62573786016
1014, -3.96107227497, 1.5, 4.55669240384
1015, -3.97018460657, 1.5, 4.48747737362
1016, -3.97808758147, 1.5, 4.41811385307
1017, -3.98477879237, 1.5, 4.34862297099
1018, -3.99025620104, 1.5, 4.27902589498
1019, -3.99451813902, 1.5, 4.20934382497
1020, -3.99756330808, 1.5, 4.13959798681
1021, -3.99939078063, 1.5, 4.06980962575
1022, -4, 1.5, 4
1023, -3.99939078063, 1.5, 3.93019037425
1024, -3.99756330808, 1.5, 3.86040201319
1025, -3.99451813902, 1.5, 3.79065617503
1026, -3.99025620104, 1.5, 3.72097410502
1027, -3.98477879237, 1.5, 3.65137702901
1028, -3.97808758147, 1.5, 3.58188614693
1029, -3.97018460657, 1.5, 3.51252262638
1030, -3.96107227497, 1.5, 3.44330759616
1031, -3.95075336238, 1.5, 3.37426213984
1032, -3.93923101205, 1.5, 3.30540728933
1033, -3.92650873379, 1.5, 3.23676401849
1034, -3.91259040294, 1.5, 3.16835323673
1035, -3.89748025914, 1.5, 3.10019578262
1036, -3.8811829051, 1.5, 3.0323124176
1037, -3.86370330516, 1.5, 2.96472381959
1038, -3.84504678375, 1.5, 2.89745057673
1039, -3.82521902385, 1.5, 2.83051318111
1040, -3.80422606518, 1.5, 2.7639320225
1041, -3.7820743024, 1.5, 2.69772738217
1042, -3.75877048314, 1.5, 2.6319194267
1043, -3.73432170599, 1.5, 2.56652820182
1044, -3.70873541827, 1.5, 2.50157362634
1045, -3.68201941381, 1.5, 2.43707548604
1046, -3.65418183057, 1.5, 2.3730534277
1047, -3.62523114815, 1.5, 2.30952695304
1048, -3.5951761852, 1.5, 2.24651541284
1049, -3.56402609675, 1.5, 2.18403800104
1050, -3.53179037144, 1.5, 2.12211374886
1051, -3.49847882856, 1.5, 2.06076151901
1052, -3.46410161514, 1.5, 2
1053, -3.42866920281, 1.5, 1.93984770036
1054, -3.39219238463, 1.5, 1.88032294307
1055, -3.35468227178, 1.5, 1.82144385994
1056, -3.31615029022, 1.5, 1.76322838612
1057, -3.27660817716, 1.5, 1.7056942546
1058, -3.2360679775, 1.5, 1.64885899083
1059, -3.19454204019, 1.5, 1.59273990739
1060, -3.15204301443, 1.5, 1.5373540987
1061, -3.10858384583, 1.5, 1.4827184358
1062, -3.06417777248, 1.5, 1.42884956125
1063, -3.01883832089, 1.5, 1.37576388404
1064, -2.97257930191, 1.5, 1.32347757456
1065, -2.92541480648, 1.5, 1.27200655975
1066, -2.87735920135, 1.5, 1.22136651816
1067, -2.82842712475, 1.5, 1.17157287525
1068, -2.77863348184, 1.5, 1.12264079865
1069, -2.72799344025, 1.5, 1.07458519352
1070, -2.67652242544, 1.5, 1.02742069809
1071, -2.62423611596, 1.5, 0.981161679109
1072, -2.57115043875, 1.5, 0.935822227524
1073, -2.5172815642, 1.5, 0.891416154172
1074, -2.4626459013, 1.5, 0.847956985573
1075, -2.40726009261, 1.5, 0.805457959811
1076, -2.35114100917, 1.5, 0.7639320225
1077, -2.2943057454, 1.5, 0.723391822844
1078, -2.23677161388, 1.5, 0.68384970978
1079, -2.17855614006, 1.5, 0.645317728218
1080, -2.11967705693, 1.5, 0.607807615374
1081, -2.06015229964, 1.5, 0.571330797192
1082, -2, 1.5, 0.535898384862
1083, -1.93923848099, 1.5, 0.501521171442
1084, -1.87788625114, 1.5, 0.468209628564
1085, -1.81596199896, 1.5, 0.435973903247
1086, -1.75348458716, 1.5, 0.404823814803
1087, -1.69047304696, 1.5, 0.374768851853
1088, -1.6269465723, 1.5, 0.34581816943
1089, -1.56292451396, 1.5, 0.31798058619
1090, -1.49842637366, 1.5, 0.291264581733
1091, -1.43347179818, 1.5, 0.265678294011
1092, -1.3680805733, 1.5, 0.241229516856
1093, -1.30227261783, 1.5, 0.217925697603
1094, -1.2360679775, 1.5, 0.195773934819
1095, -1.16948681889, 1.5, 0.174780976148
1096, -1.10254942327, 1.5, 0.154953216247
1097, -1.03527618041, 1.5, 0.136296694844
1098, -0.967687582399, 1.5, 0.118817094896
1099, -0.899804217375, 1.5, 0.102519740859
1100, -0.831646763271, 1.5, 0.0874095970648
1101, -0.763235981506, 1.5, 0.0734912662093
1102, -0.694592710668, 1.5, 0.0607689879512
1103, -0.625737860161, 1.5, 0.0492466376194
1104, -0.55669240384, 1.5, 0.0389277250337
1105, -0.487477373621, 1.5, 0.0298153934347
1106, -0.418113853071, 1.5, 0.0219124185269
1107, -0.348622970991, 1.5, 0.015221207633
1108, -0.279025894977, 1.5, 0.0097437989607
1109, -0.209343824972, 1.5, 0.0054818609817
1110, -0.13959798681, 1.5, 0.00243669192362
1111, -0.0698096257491, 1.5, 0.000609219374435
1112, 0, 1.5, 0
1113, 0.0698096257491, 1.5, 0.000609219374435
1114, 0.13959798681, 1.5, 0.00243669192362
1115, 0.209343824972, 1.5, 0.0054818609817
1116, 0.279025894977, 1.5, 0.0097437989607
1117, 0.348622970991, 1.5, 0.015221207633
1118, 0.418113853071, 1.5, 0.0219124185269
1119, 0.487477373621, 1.5, 0.0298153934347
1120, 0.55669240384, 1.5, 0.0389277250337
1121, 0.625737860161, 1.5, 0.0492466376194
1122, 0.694592710668, 1.5, 0.0607689879512
1123, 0.763235981506, 1.5, 0.0734912662093
1124, 0.831646763271, 1.5, 0.0874095970648
1125, 0.899804217375, 1.5, 0.102519740859
1126, 0.967687582399, 1.5, 0.118817094896
1127, 1.03527618041, 1.5, 0.136296694844
1128, 1.10254942327, 1.5, 0.154953216247
1129, 1.16948681889, 1.5, 0.174780976148
1130, 1.2360679775, 1.5, 0.195773934819
1131, 1.30227261783, 1.5, 0.217925697603
1132, 1.3680805733, 1.5, 0.241229516856
1133, 1.43347179818, 1.5, 0.265678294011
1134, 1.49842637366, 1.5, 0.291264581733
1135, 1.56292451396, 1.5, 0.31798058619
1136, 1.6269465723, 1.5, 0.34581816943
1137, 1.69047304696, 1.5, 0.374768851853
1138, 1.75348458716, 1.5, 0.404823814803
1139, 1.81596199896, 1.5, 0.435973903247
1140, 1.87788625114, 1.5, 0.468209628564
1141, 1.93923848099, 1.5, 0.501521171442
1142, 2, 1.5, 0.535898384862
1143, 2.06015229964, 1.5, 0.571330797192
1144, 2.11967705693, 1.5, 0.607807615374
1145, 2.17855614006, 1.5, 0.645317728218
1146, 2.23677161388, 1.5, 0.68384970978
1147, 2.2943057454, 1.5, 0.723391822844
1148, 2.35114100917, 1.5, 0.7639320225
1149, 2.40726009261, 1.5, 0.805457959811
1150, 2.4626459013, 1.5, 0.847956985573
1151, 2.5172815642, 1.5, 0.891416154172
1152, 2.57115043875, 1.5, 0.935822227524
1153, 2.62423611596, 1.5, 0.981161679109
1154, 2.67652242544, 1.5, 1.02742069809
1155, 2.72799344025, 1.5, 1.07458519352
1156, 2.77863348184, 1.5, 1.12264079865
1157, 2.82842712475, 1.5, 1.17157287525
1158, 2.87735920135, 1.5, 1.22136651816
1159, 2.92541480648, 1.5, 1.27200655975
1160, 2.97257930191, 1.5, 1.32347757456
1161, 3.01883832089, 1.5, 1.37576388404
1162, 3.06417777248, 1.5, 1.42884956125
1163, 3.10858384583, 1.5, 1.4827184358
1164, 3.15204301443, 1.5, 1.5373540987
1165, 3.19454204019, 1.5, 1.59273990739
1166, 3.2360679775, 1.5, 1.64885899083
1167, 3.27660817716, 1.5, 1.7056942546
1168, 3.31615029022, 1.5, 1.76322838612
1169, 3.35468227178, 1.5, 1.82144385994
1170, 3.39219238463, 1.5, 1.88032294307
1171, 3.42866920281, 1.5, 1.93984770036
1172, 3.46410161514, 1.5, 2
1173, 3.49847882856, 1.5, 2.06076151901
1174, 3.53179037144, 1.5, 2.12211374886
1175, 3.56402609675, 1.5, 2.18403800104
1176, 3.5951761852, 1.5, 2.24651541284
1177, 3.62523114815, 1.5, 2.30952695304
1178, 3.65418183057, 1.5, 2.3730534277
1179, 3.68201941381, 1.5, 2.43707548604
1180, 3.70873541827, 1.5, 2.50157362634
1181, 3.73432170599, 1.5, 2.56652820182
1182, 3.75877048314, 1.5, 2.6319194267
1183, 3.7820743024, 1.5, 2.69772738217
1184, 3.80422606518, 1.5, 2.7639320225
1185, 3.82521902385, 1.5, 2.83051318111
1186, 3.84504678375, 1.5, 2.89745057673
1187, 3.86370330516, 1.5, 2.96472381959
1188, 3.8811829051, 1.5, 3.0323124176
1189, 3.89748025914, 1.5, 3.10019578262
1190, 3.91259040294, 1.5, 3.16835323673
1191, 3.92650873379, 1.5, 3.23676401849
1192, 3.93923101205, 1.5, 3.30540728933
1193, 3.95075336238, 1.5, 3.37426213984
1194, 3.96107227497, 1.5, 3.44330759616
1195, 3.97018460657, 1.5, 3.51252262638
1196, 3.97808758147, 1.5, 3.58188614693
1197, 3.98477879237, 1.5, 3.65137702901
1198, 3.99025620104, 1.5, 3.72097410502
1199, 3.99451813902, 1.5, 3.79065617503
1200, 3.99756330808, 1.5, 3.86040201319
1201, 3.99939078063, 1.5, 3.93019037425
1202, 4, 1.5, 4
1203, 3.99939078063, 1.5, 4.06980962575
1204, 3.99756330808, 1.5, 4.13959798681
1205, 3.99451813902, 1.5, 4.20934382497
1206, 3.99025620104, 1.5, 4.27902589498
1207, 3.98477879237, 1.5, 4.34862297099
1208, 3.97808758147, 1.5, 4.41811385307
1209, 3.97018460657, 1.5, 4.48747737362
1210, 3.96107227497, 1.5, 4.55669240384
1211, 3.95075336238, 1.5, 4.62573786016
1212, 3.93923101205, 1.5, 4.69459271067
1213, -3.44682713554, -1, 4.60776862183
1214, -3.45690919208, -1, 4.54752062764
1215, -3.4659382406, -1, 4.48710585336
1216, -3.47391153074, -1, 4.42654270192
1217, -3.48082663379, -1, 4.36584962144
1218, -3.48668144332, -1, 4.30504509962
1219, -3.49147417591, -1, 4.2441476581
1220, -3.49520337164, -1, 4.18317584685
1221, -3.49786789457, -1, 4.12214823846
1222, -3.49946693305, -1, 4.06108342253
1223, -3.5, -1, 4
1224, -3.49946693305, -1, 3.93891657747
1225, -3.49786789457, -1, 3.87785176154
1226, -3.49520337164, -1, 3.81682415315
1227, -3.49147417591, -1, 3.7558523419
1228, -3.48668144332, -1, 3.69495490038
1229, -3.48082663379, -1, 3.63415037856
1230, -3.47391153074, -1, 3.57345729808
1231, -3.4659382406, -1, 3.51289414664
1232, -3.45690919208, -1, 3.45247937236
1233, -3.44682713554, -1, 3.39223137817
1234, -3.43569514207, -1, 3.33216851618
1235, -3.42351660257, -1, 3.27230908214
1236, -3.41029522675, -1, 3.2126713098
1237, -3.39603504197, -1, 3.1532733654
1238, -3.38074039201, -1, 3.09413334214
1239, -3.36441593578, -1, 3.03526925464
1240, -3.34706664587, -1, 2.97669903347
1241, -3.32869780703, -1, 2.91844051969
1242, -3.3093150146, -1, 2.8605114594
1243, -3.28892417275, -1, 2.80292949836
1244, -3.26753149274, -1, 2.74571217659
1245, -3.24514349098, -1, 2.68887692304
1246, -3.22176698708, -1, 2.63244105029
1247, -3.19740910175, -1, 2.57642174923
1248, -3.17207725463, -1, 2.52083608391
1249, -3.14577916205, -1, 2.46570098624
1250, -3.11852283466, -1, 2.41103325091
1251, -3.09031657501, -1, 2.35684953025
1252, -3.06116897499, -1, 2.30316632914
1253, -3.03108891325, -1, 2.25
1254, -3.00008555246, -1, 2.19736673781
1255, -2.96816833655, -1, 2.14528257518
1256, -2.93534698781, -1, 2.09376337745
1257, -2.90163150394, -1, 2.04282483785
1258, -2.86703215501, -1, 1.99248247277
1259, -2.83155948031, -1, 1.94275161698
1260, -2.79522428517, -1, 1.89364741897
1261, -2.75803763762, -1, 1.84518483636
1262, -2.7200108651, -1, 1.79737863133
1263, -2.68115555092, -1, 1.7502433661
1264, -2.64148353078, -1, 1.70379339853
1265, -2.60100688917, -1, 1.65804287774
1266, -2.55973795567, -1, 1.61300573978
1267, -2.51768930119, -1, 1.56869570339
1268, -2.47487373415, -1, 1.52512626585
1269, -2.43130429661, -1, 1.48231069881
1270, -2.38699426022, -1, 1.44026204433
1271, -2.34195712226, -1, 1.39899311083
1272, -2.29620660147, -1, 1.35851646922
1273, -2.2497566339, -1, 1.31884444908
1274, -2.20262136867, -1, 1.2799891349
1275, -2.15481516364, -1, 1.24196236238
1276, -2.10635258103, -1, 1.20477571483
1277, -2.05724838302, -1, 1.16844051969
1278, -2.00751752723, -1, 1.13296784499
1279, -1.95717516215, -1, 1.09836849606
1280, -1.90623662255, -1, 1.06465301219
1281, -1.85471742482, -1, 1.03183166345
1282, -1.80263326219, -1, 0.999914447543
1283, -1.75, -1, 0.968911086754
1284, -1.69683367086, -1, 0.938831025012
1285, -1.64315046975, -1, 0.909683424994
1286, -1.58896674909, -1, 0.881477165341
1287, -1.53429901376, -1, 0.854220837953
1288, -1.47916391609, -1, 0.827922745372
1289, -1.42357825077, -1, 0.802590898251
1290, -1.36755894971, -1, 0.778233012916
1291, -1.31112307696, -1, 0.754856509016
1292, -1.25428782341, -1, 0.73246850726
1293, -1.19707050164, -1, 0.711075827249
1294, -1.1394885406, -1, 0.690684985402
1295, -1.08155948031, -1, 0.671302192967
1296, -1.02330096653, -1, 0.652933354129
1297, -0.964730745359, -1, 0.635584064216
1298, -0.905866657859, -1, 0.619259607988
1299, -0.846726634599, -1, 0.603964958034
1300, -0.787328690204, -1, 0.589704773252
1301, -0.727690917862, -1, 0.576483397432
1302, -0.667831483818, -1, 0.564304857933
1303, -0.607768621834, -1, 0.553172864457
1304, -0.547520627641, -1, 0.543090807917
1305, -0.48710585336, -1, 0.534061759405
1306, -0.426542701918, -1, 0.526088469255
1307, -0.365849621437, -1, 0.519173366211
1308, -0.305045099617, -1, 0.513318556679
1309, -0.244147658104, -1, 0.508525824091
1310, -0.18317584685, -1, 0.504796628359
1311, -0.122148238459, -1, 0.502132105433
1312, -0.0610834225305, -1, 0.500533066953
1313, 0, -1, 0.5
1314, 0.0610834225305, -1, 0.500533066953
1315, 0.122148238459, -1, 0.502132105433
1316, 0.18317584685, -1, 0.504796628359
1317, 0.244147658104, -1, 0.508525824091
1318, 0.305045099617, -1, 0.513318556679
1319, 0.365849621437, -1, 0.519173366211
1320, 0.426542701918, -1, 0.526088469255
1321, 0.48710585336, -1, 0.534061759405
1322, 0.547520627641, -1, 0.543090807917
1323, 0.607768621834, -1, 0.553172864457
1324, 0.667831483818, -1, 0.564304857933
1325, 0.727690917862, -1, 0.576483397432
1326, 0.787328690204, -1, 0.589704773252
1327, 0.846726634599, -1, 0.603964958034
1328, 0.905866657859, -1, 0.619259607988
1329, 0.964730745359, -1, 0.635584064216
1330, 1.02330096653, -1, 0.652933354129
1331, 1.08155948031, -1, 0.671302192967
1332, 1.1394885406, -1, 0.690684985402
1333, 1.19707050164, -1, 0.711075827249
1334, 1.25428782341, -1, 0.73246850726
1335, 1.31112307696, -1, 0.754856509016
1336, 1.36755894971, -1, 0.778233012916
1337, 1.42357825077, -1, 0.802590898251
1338, 1.47916391609, -1, 0.827922745372
1339, 1.53429901376, -1, 0.854220837953
1340, 1.58896674909, -1, 0.881477165341
1341, 1.64315046975, -1, 0.909683424994
1342, 1.69683367086, -1, 0.938831025012
1343, 1.75, -1, 0.968911086754
1344, 1.80263326219, -1, 0.999914447543
1345, 1.85471742482, -1, 1.03183166345
1346, 1.90623662255, -1, 1.06465301219
1347, 1.95717516215, -1, 1.09836849606
1348, 2.00751752723, -1, 1.13296784499
1349, 2.05724838302, -1, 1.16844051969
1350, 2.10635258103, -1, 1.20477571483
1351, 2.15481516364, -1, 1.24196236238
1352, 2.20262136867, -1, 1.2799891349
1353, 2.2497566339, -1, 1.31884444908
1354, 2.29620660147, -1, 1.35851646922
1355, 2.34195712226, -1, 1.39899311083
1356, 2.38699426022, -1, 1.44026204433
1357, 2.43130429661, -1, 1.48231069881
1358, 2.47487373415, -1, 1.52512626585
1359, 2.51768930119, -1, 1.56869570339
1360, 2.55973795567, -1, 1.61300573978
1361, 2.60100688917, -1, 1.65804287774
1362, 2.64148353078, -1, 1.70379339853
1363, 2.68115555092, -1, 1.7502433661
1364, 2.7200108651, -1, 1.79737863133
1365, 2.75803763762, -1, 1.84518483636
1366, 2.79522428517, -1, 1.89364741897
1367, 2.83155948031, -1, 1.94275161698
1368, 2.86703215501, -1, 1.99248247277
1369, 2.90163150394, -1, 2.04282483785
1370, 2.93534698781, -1, 2.09376337745
1371, 2.96816833655, -1, 2.14528257518
1372, 3.00008555246, -1, 2.19736673781
1373, 3.03108891325, -1, 2.25
1374, 3.06116897499, -1, 2.30316632914
1375, 3.09031657501, -1, 2.35684953025
1376, 3.11852283466, -1, 2.41103325091
1377, 3.14577916205, -1, 2.46570098624
1378, 3.17207725463, -1, 2.52083608391
1379, 3.19740910175, -1, 2.57642174923
1380, 3.22176698708, -1, 2.63244105029
1381, 3.24514349098, -1, 2.68887692304
1382, 3.26753149274, -1, 2.74571217659
1383, 3.28892417275, -1, 2.80292949836
1384, 3.3093150146, -1, 2.8605114594
1385, 3.32869780703, -1, 2.91844051969
1386, 3.34706664587, -1, 2.97669903347
1387, 3.36441593578, -1, 3.03526925464
1388, 3.38074039201, -1, 3.09413334214
1389, 3.39603504197, -1, 3.1532733654
1390, 3.41029522675, -1, 3.2126713098
1391, 3.42351660257, -1, 3.27230908214
1392, 3.43569514207, -1, 3.33216851618
1393, 3.44682713554, -1, 3.39223137817
1394, 3.45690919208, -1, 3.45247937236
1395, 3.4659382406, -1, 3.51289414664
1396, 3.47391153074, -1, 3.57345729808
1397, 3.48082663379, -1, 3.63415037856
1398, 3.48668144332, -1, 3.69495490038
1399, 3.49147417591, -1, 3.7558523419
1400, 3.49520337164, -1, 3.81682415315
1401, 3.49786789457, -1, 3.87785176154
1402, 3.49946693305, -1, 3.93891657747
1403, 3.5, -1, 4
1404, 3.49946693305, -1, 4.06108342253
1405, 3.49786789457, -1, 4.12214823846
1406, 3.49520337164, -1, 4.18317584685
1407, 3.49147417591, -1, 4.2441476581
1408, 3.48668144332, -1, 4.30504509962
1409, 3.48082663379, -1, 4.36584962144
1410, 3.47391153074, -1, 4.42654270192
1411, 3.4659382406, -1, 4.48710585336
1412, 3.45690919208, -1, 4.54752062764
1413, 3.44682713554, -1, 4.60776862183
1414, -3.44682713554, 1.5, 4.60776862183
1415, -3.45690919208, 1.5, 4.54752062764
1416, -3.4659382406, 1.5, 4.48710585336
1417, -3.47391153074, 1.5, 4.42654270192
1418, -3.48082663379, 1.5, 4.36584962144
1419, -3.48668144332, 1.5, 4.30504509962
1420, -3.49147417591, 1.5, 4.2441476581
1421, -3.49520337164, 1.5, 4.18317584685
1422, -3.49786789457, 1.5, 4.12214823846
1423, -3.49946693305, 1.5, 4.06108342253
1424, -3.5, 1.5, 4
1425, -3.49946693305, 1.5, 3.93891657747
1426, -3.49786789457, 1.5, 3.87785176154
1427, -3.49520337164, 1.5, 3.81682415315
1428, -3.49147417591, 1.5, 3.7558523419
1429, -3.48668144332, 1.5, 3.69495490038
1430, -3.48082663379, 1.5, 3.63415037856
1431, -3.47391153074, 1.5, 3.57345729808
1432, -3.4659382406, 1.5, 3.51289414664
1433, -3.45690919208, 1.5, 3.45247937236
1434, -3.44682713554, 1.5, 3.39223137817
1435, -3.43569514207, 1.5, 3.33216851618
1436, -3.42351660257, 1.5, 3.27230908214
1437, -3.41029522675, 1.5, 3.2126713098
1438, -3.39603504197, 1.5, 3.1532733654
1439, -3.38074039201, 1.5, 3.09413334214
1440, -3.36441593578, 1.5, 3.03526925464
1441, -3.34706664587, 1.5, 2.97669903347
1442, -3.32869780703, 1.5, 2.91844051969
1443, -3.3093150146, 1.5, 2.8605114594
1444, -3.28892417275, 1.5, 2.80292949836
1445, -3.26753149274, 1.5, 2.74571217659
1446, -3.24514349098, 1.5, 2.68887692304
1447, -3.22176698708, 1.5, 2.63244105029
1448, -3.19740910175, 1.5, 2.57642174923
1449, -3.17207725463, 1.5, 2.52083608391
1450, -3.14577916205, 1.5, 2.46570098624
1451, -3.11852283466, 1.5, 2.41103325091
1452, -3.09031657501, 1.5, 2.35684953025
1453, -3.06116897499, 1.5, 2.30316632914
1454, -3.03108891325, 1.5, 2.25
1455, -3.00008555246, 1.5, 2.19736673781
1456, -2.96816833655, 1.5, 2.14528257518
1457, -2.93534698781, 1.5, 2.09376337745
1458, -2.90163150394, 1.5, 2.04282483785
1459, -2.86703215501, 1.5, 1.99248247277
1460, -2.83155948031, 1.5, 1.94275161698
1461, -2.79522428517, 1.5, 1.89364741897
1462, -2.75803763762, 1.5, 1.84518483636
1463, -2.7200108651, 1.5, 1.79737863133
1464, -2.68115555092, 1.5, 1.7502433661
1465, -2.64148353078, 1.5, 1.70379339853
1466, -2.60100688917, 1.5, 1.65804287774
1467, -2.55973795567, 1.5, 1.61300573978
1468, -2.51768930119, 1.5, 1.56869570339
1469, -2.47487373415, 1.5, 1.52512626585
1470, -2.43130429661, 1.5, 1.48231069881
1471, -2.38699426022, 1.5, 1.44026204433
1472, -2.34195712226, 1.5, 1.39899311083
1473, -2.29620660147, 1.5, 1.35851646922
1474, -2.2497566339, 1.5, 1.31884444908
1475, -2.20262136867, 1.5, 1.2799891349
1476, -2.15481516364, 1.5, 1.24196236238
1477, -2.10635258103, 1.5, 1.20477571483
1478, -2.05724838302, 1.5, 1.16844051969
1479, -2.00751752723, 1.5, 1.13296784499
1480, -1.95717516215, 1.5, 1.09836849606
1481, -1.90623662255, 1.5, 1.06465301219
1482, -1.85471742482, 1.5, 1.03183166345
1483, -1.80263326219, 1.5, 0.999914447543
1484, -1.75, 1.5, 0.968911086754
1485, -1.69683367086, 1.5, 0.938831025012
1486, -1.64315046975, 1.5, 0.909683424994
1487, -1.58896674909, 1.5, 0.881477165341
1488, -1.53429901376, 1.5, 0.854220837953
1489, -1.47916391609, 1.5, 0.827922745372
1490, -1.42357825077, 1.5, 0.802590898251
1491, -1.36755894971, 1.5, 0.778233012916
1492, -1.31112307696, 1.5, 0.754856509016
1493, -1.25428782341, 1.5, 0.73246850726
1494, -1.19707050164, 1.5, 0.711075827249
1495, -1.1394885406, 1.5, 0.690684985402
1496, -1.08155948031, 1.5, 0.671302192967
1497, -1.02330096653, 1.5, 0.652933354129
1498, -0.964730745359, 1.5, 0.635584064216
1499, -0.905866657859, 1.5, 0.619259607988
1500, -0.846726634599, 1.5, 0.603964958034
1501, -0.787328690204, 1.5, 0.589704773252
1502, -0.727690917862, 1.5, 0.576483397432
1503, -0.667831483818, 1.5, 0.564304857933
1504, -0.607768621834, 1.5, 0.553172864457
1505, -0.547520627641, 1.5, 0.543090807917
1506, -0.48710585336, 1.5, 0.534061759405
1507, -0.426542701918, 1.5, 0.526088469255
1508, -0.365849621437, 1.5, 0.519173366211
1509, -0.305045099617, 1.5, 0.513318556679
1510, -0.244147658104, 1.5, 0.508525824091
1511, -0.18317584685, 1.5, 0.504796628359
1512, -0.122148238459, 1.5, 0.502132105433
1513, -0.0610834225305, 1.5, 0.500533066953
1514, 0, 1.5, 0.5
1515, 0.0610834225305, 1.5, 0.500533066953
1516, 0.122148238459, 1.5, 0.502132105433
1517, 0.18317584685, 1.5, 0.504796628359
1518, 0.244147658104, 1.5, 0.508525824091
1519, 0.305045099617, 1.5, 0.513318556679
1520, 0.365849621437, 1.5, 0.519173366211
1521, 0.426542701918, 1.5, 0.526088469255
1522, 0.48710585336, 1.5, 0.534061759405
1523, 0.547520627641, 1.5, 0.543090807917
1524, 0.607768621834, 1.5, 0.553172864457
1525, 0.667831483818, 1.5, 0.564304857933
1526, 0.727690917862, 1.5, 0.576483397432
1527, 0.787328690204, 1.5, 0.589704773252
1528, 0.846726634599, 1.5, 0.603964958034
1529, 0.905866657859, 1.5, 0.619259607988
1530, 0.964730745359, 1.5, 0.635584064216
1531, 1.02330096653, 1.5, 0.652933354129
1532, 1.08155948031, 1.5, 0.671302192967
1533, 1.1394885406, 1.5, 0.690684985402
1534, 1.19707050164, 1.5, 0.711075827249
1535, 1.25428782341, 1.5, 0.73246850726
1536, 1.31112307696, 1.5, 0.754856509016
1537, 1.36755894971, 1.5, 0.778233012916
1538, 1.42357825077, 1.5, 0.802590898251
1539, 1.47916391609, 1.5, 0.827922745372
1540, 1.53429901376, 1.5, 0.854220837953
1541, 1.58896674909, 1.5, 0.881477165341
1542, 1.64315046975, 1.5, 0.909683424994
1543, 1.69683367086, 1.5, 0.938831025012
1544, 1.75, 1.5, 0.968911086754
1545, 1.80263326219, 1.5, 0.999914447543
1546, 1.85471742482, 1.5, 1.03183166345
1547, 1.90623662255, 1.5, 1.06465301219
1548, 1.95717516215, 1.5, 1.09836849606
1549, 2.00751752723, 1.5, 1.13296784499
1550, 2.05724838302, 1.5, 1.16844051969
1551, 2.10635258103, 1.5, 1.20477571483
1552, 2.15481516364, 1.5, 1.24196236238
1553, 2.20262136867, 1.5, 1.2799891349
1554, 2.2497566339, 1.5, 1.31884444908
1555, 2.29620660147, 1.5, 1.35851646922
1556, 2.34195712226, 1.5, 1.39899311083
1557, 2.38699426022, 1.5, 1.44026204433
1558, 2.43130429661, 1.5, 1.48231069881
1559, 2.47487373415, 1.5, 1.52512626585
1560, 2.51768930119, 1.5, 1.56869570339
1561, 2.55973795567, 1.5, 1.61300573978
1562, 2.60100688917, 1.5, 1.65804287774
1563, 2.64148353078, 1.5, 1.70379339853
1564, 2.68115555092, 1.5, 1.7502433661
1565, 2.7200108651, 1.5, 1.79737863133
1566, 2.75803763762, 1.5, 1.84518483636
1567, 2.79522428517, 1.5, 1.89364741897
1568, 2.83155948031, 1.5, 1.94275161698
1569, 2.86703215501, 1.5, 1.99248247277
1570, 2.90163150394, 1.5, 2.04282483785
1571, 2.93534698781, 1.5, 2.09376337745
1572, 2.96816833655, 1.5, 2.14528257518
1573, 3.00008555246, 1.5, 2.19736673781
1574, 3.03108891325, 1.5, 2.25
1575, 3.06116897499, 1.5, 2.30316632914
1576, 3.09031657501, 1.5, 2.35684953025
1577, 3.11852283466, 1.5, 2.41103325091
1578, 3.14577916205, 1.5, 2.46570098624
1579, 3.17207725463, 1.5, 2.52083608391
1580, 3.19740910175, 1.5, 2.57642174923
1581, 3.22176698708, 1.5, 2.63244105029
1582, 3.24514349098, 1.5, 2.68887692304
1583, 3.26753149274, 1.5, 2.74571217659
1584, 3.28892417275, 1.5, 2.80292949836
1585, 3.3093150146, 1.5, 2.8605114594
1586, 3.32869780703, 1.5, 2.91844051969
1587, 3.34706664587, 1.5, 2.97669903347
1588, 3.36441593578, 1.5, 3.03526925464
1589, 3.38074039201, 1.5, 3.09413334214
1590, 3.39603504197, 1.5, 3.1532733654
1591, 3.41029522675, 1.5, 3.2126713098
1592, 3.42351660257, 1.5, 3.27230908214
1593, 3.43569514207, 1.5, 3.33216851618
1594, 3.44682713554, 1.5, 3.39223137817
1595, 3.45690919208, 1.5, 3.45247937236
1596, 3.4659382406, 1.5, 3.51289414664
1597, 3.47391153074, 1.5, 3.57345729808
1598, 3.48082663379, 1.5, 3.63415037856
1599, 3.48668144332, 1.5, 3.69495490038
1600, 3.49147417591, 1.5, 3.7558523419
1601, 3.49520337164, 1.5, 3.81682415315
1602, 3.49786789457, 1.5, 3.87785176154
1603, 3.49946693305, 1.5, 3.93891657747
1604, 3.5, 1.5, 4
1605, 3.49946693305, 1.5, 4.06108342253
1606, 3.49786789457, 1.5, 4.12214823846
1607, 3.49520337164, 1.5, 4.18317584685
1608, 3.49147417591, 1.5, 4.2441476581
1609, 3.48668144332, 1.5, 4.30504509962
1610, 3.48082663379, 1.5, 4.36584962144
1611, 3.47391153074, 1.5, 4.42654270192
1612, 3.4659382406, 1.5, 4.48710585336
1613, 3.45690919208, 1.5, 4.54752062764
1614, 3.44682713554, 1.5, 4.60776862183
*ELEMENT, TYPE=C3D8, ELSET=SHEET
1, 1, 2, 83, 82, 163, 164, 245, 244
2, 2, 3, 84, 83, 164, 165, 246, 245
3, 3, 4, 85, 84, 165, 166, 247, 246
4, 4, 5, 86, 85, 166, 167, 248, 247
5, 5, 6, 87, 86, 167, 168, 249, 248
6, 6, 7, 88, 87, 168, 169, 250, 249
7, 7, 8, 89, 88, 169, 170, 251, 250
8, 8, 9, 90, 89, 170, 171, 252, 251
9, 9, 10, 91, 90, 171, 172, 253, 252
10, 10, 11, 92, 91, 172, 173, 254, 253
11, 11, 12, 93, 92, 173, 174, 255, 254
12, 12, 13, 94, 93, 174, 175, 256, 255
13, 13, 14, 95, 94, 175, 176, 257, 256
14, 14, 15, 96, 95, 176, 177, 258, 257
15, 15, 16, 97, 96, 177, 178, 259, 258
16, 16, 17, 98, 97, 178, 179, 260, 259
17, 17, 18, 99, 98, 179, 180, 261, 260
18, 18, 19, 100, 99, 180, 181, 262, 261
19, 19, 20, 101, 100, 181, 182, 263, 262
20, 20, 21, 102, 101, 182, 183, 264, 263
21, 21, 22, 103, 102, 183, 184, 265, 264
22, 22, 23, 104, 103, 184, 185, 266, 265
23, 23, 24, 105, 104, 185, 186, 267, 266
24, 24, 25, 106, 105, 186, 187, 268, 267
25, 25, 26, 107, 106, 187, 188, 269, 268
26, 26, 27, 108, 107, 188, 189, 270, 269
27, 27, 28, 109, 108, 189, 190, 271, 270
28, 28, 29, 110, 109, 190, 191, 272, 271
29, 29, 30, 111, 110, 191, 192, 273, 272
30, 30, 31, 112, 111, 192, 193, 274, 273
31, 31, 32, 113, 112, 193, 194, 275, 274
32, 32, 33, 114, 113, 194, 195, 276, 275
33, 33, 34, 115, 114, 195, 196, 277, 276
34, 34, 35, 116, 115, 196, 197, 278, 277
35, 35, 36, 117, 116, 197, 198, 279, 278
36, 36, 37, 118, 117, 198, 199, 280, 279
37, 37, 38, 119, 118, 199, 200, 281, 280
38, 38, 39, 120, 119, 200, 201, 282, 281
39, 39, 40, 121, 120, 201, 202, 283, 282
40, 40, 41, 122, 121, 202, 203, 284, 283
41, 41, 42, 123, 122, 203, 204, 285, 284
42, 42, 43, 124, 123, 204, 205, 286, 285
43, 43, 44, 125, 124, 205, 206, 287, 286
44, 44, 45, 126, 125, 206, 207, 288, 287
45, 45, 46, 127, 126, 207, 208, 289, 288
46, 46, 47, 128, 127, 208, 209, 290, 289
47, 47, 48, 129, 128, 209, 210, 291, 290
48, 48, 49, 130, 129, 210, 211, 292, 291
49, 49, 50, 131, 130, 211, 212, 293, 292
50, 50, 51, 132, 131, 212, 213, 294, 293
51, 51, 52, 133, 132, 213, 214, 295, 294
52, 52, 53, 134, 133, 214, 215, 296, 295
53, 53, 54, 135, 134, 215, 216, 297, 296
54, 54, 55, 136, 135, 216, 217, 298, 297
55, 55, 56, 137, 136, 217, 218, 299, 298
56, 56, 57, 138, 137, 218, 219, 300, 299
57, 57, 58, 139, 138, 219, 220, 301, 300
58, 58, 59, 140, 139, 220, 221, 302, 301
59, 59, 60, 141, 140, 221, 222, 303, 302
60, 60, 61, 142, 141, 222, 223, 304, 303
61, 61, 62, 143, 142, 223, 224, 305, 304
62, 62, 63, 144, 143, 224, 225, 306, 305
63, 63, 64, 145, 144, 225, 226, 307, 306
64, 64, 65, 146, 145, 226, 227, 308, 307
65, 65, 66, 147, 146, 227, 228, 309, 308
66, 66, 67, 148, 147, 228, 229, 310, 309
67, 67, 68, 149, 148, 229, 230, 311, 310
68, 68, 69, 150, 149, 230, 231, 312, 311
69, 69, 70, 151, 150, 231, 232, 313, 312
70, 70, 71, 152, 151, 232, 233, 314, 313
71, 71, 72, 153, 152, 233, 234, 315, 314
72, 72, 73, 154, 153, 234, 235, 316, 315
73, 73, 74, 155, 154, 235, 236, 317, 316
74, 74, 75, 156, 155, 236, 237, 318, 317
75, 75, 76, 157, 156, 237, 238, 319, 318
76, 76, 77, 158, 157, 238, 239, 320, 319
77, 77, 78, 159, 158, 239, 240, 321, 320
78, 78, 79, 160, 159, 240, 241, 322, 321
79, 79, 80, 161, 160, 241, 242, 323, 322
80, 80, 81, 162, 161, 242, 243, 324, 323
81, 163, 164, 245, 244, 325, 326, 407, 406
82, 164, 165, 246, 245, 326, 327, 408, 407
83, 165, 166, 247, 246, 327, 328, 409, 408
84, 166, 167, 248, 247, 328, 329, 410, 409
85, 167, 168, 249, 248, 329, 330, 411, 410
86, 168, 169, 250, 249, 330, 331, 412, 411
87, 169, 170, 251, 250, 331, 332, 413, 412
88, 170, 171, 252, 251, 332, 333, 414, 413
89, 171, 172, 253, 252, 333, 334, 415, 414
90, 172, 173, 254, 253, 334, 335, 416, 415
91, 173, 174, 255, 254, 335, 336, 417, 416
92, 174, 175, 256, 255, 336, 337, 418, 417
93, 175, 176, 257, 256, 337, 338, 419, 418
94, 176, 177, 258, 257, 338, 339, 420, 419
95, 177, 178, 259, 258, 339, 340, 421, 420
96, 178, 179, 260, 259, 340, 341, 422, 421
97, 179, 180, 261, 260, 341, 342, 423, 422
98, 180, 181, 262, 261, 342, 343, 424, 423
99, 181, 182, 263, 262, 343, 344, 425, 424
100, 182, 183, 264, 263, 344, 345, 426, 425
101, 183, 184, 265, 264, 345, 346, 427, 426
102, 184, 185, 266, 265, 346, 347, 428, 427
103, 185, 186, 267, 266, 347, 348, 429, 428
104, 186, 187, 268, 267, 348, 349, 430, 429
105, 187, 188, 269, 268, 349, 350, 431, 430
106, 188, 189, 270, 269, 350, 351, 432, 431
107, 189, 190, 271, 270, 351, 352, 433, 432
108, 190, 191, 272, 271, 352, 353, 434, 433
109, 191, 192, 273, 272, 353, 354, 435, 434
110, 192, 193, 274, 273, 354, 355, 436, 435
111, 193, 194, 275, 274, 355, 356, 437, 436
112, 194, 195, 276, 275, 356, 357, 438, 437
113, 195, 196, 277, 276, 357, 358, 439, 438
114, 196, 197, 278, 277, 358, 359, 440, 439
115, 197, 198, 279, 278, 359, 360, 441, 440
116, 198, 199, 280, 279, 360, 361, 442, 441
117, 199, 200, 281, 280, 361, 362, 443, 442
118, 200, 201, 282, 281, 362, 363, 444, 443
119, 201, 202, 283, 282, 363, 364, 445, 444
120, 202, 203, 284, 283, 364, 365, 446, 445
121, 203, 204, 285, 284, 365, 366, 447, 446
122, 204, 205, 286, 285, 366, 367, 448, 447
123, 205, 206, 287, 286, 367, 368, 449, 448
124, 206, 207, 288, 287, 368, 369, 450, 449
125, 207, 208, 289, 288, 369, 370, 451, 450
126, 208, 209, 290, 289, 370, 371, 452, 451
127, 209, 210, 291, 290, 371, 372, 453, 452
128, 210, 211, 292, 291, 372, 373, 454, 453
129, 211, 212, 293, 292, 373, 374, 455, 454
130, 212, 213, 294, 293, 374, 375, 456, 455
131, 213, 214, 295, 294, 375, 376, 457, 456
132, 214, 215, 296, 295, 376, 377, 458, 457
133, 215, 216, 297, 296, 377, 378, 459, 458
134, 216, 217, 298, 297, 378, 379, 460, 459
135, 217, 218, 299, 298, 379, 380, 461, 460
136, 218, 219, 300, 299, 380, 381, 462, 461
137, 219, 220, 301, 300, 381, 382, 463, 462
138, 220, 221, 302, 301, 382, 383, 464, 463
139, 221, 222, 303, 302, 383, 384, 465, 464
140, 222, 223, 304, 303, 384, 385, 466, 465
141, 223, 224, 305, 304, 385, 386, 467, 466
142, 224, 225, 306, 305, 386, 387, 468, 467
143, 225, 226, 307, 306, 387, 388, 469, 468
144, 226, 227, 308, 307, 388, 389, 470, 469
145, 227, 228, 309, 308, 389, 390, 471, 470
146, 228, 229, 310, 309, 390, 391, 472, 471
147, 229, 230, 311, 310, 391, 392, 473, 472
148, 230, 231, 312, 311, 392, 393, 474, 473
149, 231, 232, 313, 312, 393, 394, 475, 474
150, 232, 233, 314, 313, 394, 395, 476, 475
151, 233, 234, 315, 314, 395, 396, 477, 476
152, 234, 235, 316, 315, 396, 397, 478, 477
153, 235, 236, 317, 316, 397, 398, 479, 478
154, 236, 237, 318, 317, 398, 399, 480, 479
155, 237, 238, 319, 318, 399, 400, 481, 480
156, 238, 239, 320, 319, 400, 401, 482, 481
157, 239, 240, 321, 320, 401, 402, 483, 482
158, 240, 241, 322, 321, 402, 403, 484, 483
159, 241, 242, 323, 322, 403, 404, 485, 484
160, 242, 243, 324, 323, 404, 405, 486, 485
161, 325, 326, 407, 406, 487, 488, 569, 568
162, 326, 327, 408, 407, 488, 489, 570, 569
163, 327, 328, 409, 408, 489, 490, 571, 570
164, 328, 329, 410, 409, 490, 491, 572, 571
165, 329, 330, 411, 410, 491, 492, 573, 572
166, 330, 331, 412, 411, 492, 493, 574, 573
167, 331, 332, 413, 412, 493, 494, 575, 574
168, 332, 333, 414, 413, 494, 495, 576, 575
169, 333, 334, 415, 414, 495, 496, 577, 576
170, 334, 335, 416, 415, 496, 497, 578, 577
171, 335, 336, 417, 416, 497, 498, 579, 578
172, 336, 337, 418, 417, 498, 499, 580, 579
173, 337, 338, 419, 418, 499, 500, 581, 580
174, 338, 339, 420, 419, 500, 501, 582, 581
175, 339, 340, 421, 420, 501, 502, 583, 582
176, 340, 341, 422, 421, 502, 503, 584, 583
177, 341, 342, 423, 422, 503, 504, 585, 584
178, 342, 343, 424, 423, 504, 505, 586, 585
179, 343, 344, 425, 424, 505, 506, 587, 586
180, 344, 345, 426, 425, 506, 507, 588, 587
181, 345, 346, 427, 426, 507, 508, 589, 588
182, 346, 347, 428, 427, 508, 509, 590, 589
183, 347, 348, 429, 428, 509, 510, 591, 590
184, 348, 349, 430, 429, 510, 511, 592, 591
185, 349, 350, 431, 430, 511, 512, 593, 592
186, 350, 351, 432, 431, 512, 513, 594, 593
187, 351, 352, 433, 432, 513, 514, 595, 594
188, 352, 353, 434, 433, 514, 515, 596, 595
189, 353, 354, 435, 434, 515, 516, 597, 596
190, 354, 355, 436, 435, 516, 517, 598, 597
191, 355, 356, 437, 436, 517, 518, 599, 598
192, 356, 357, 438, 437, 518, 519, 600, 599
193, 357, 358, 439, 438, 519, 520, 601, 600
194, 358, 359, 440, 439, 520, 521, 602, 601
195, 359, 360, 441, 440, 521, 522, 603, 602
196, 360, 361, 442, 441, 522, 523, 604, 603
197, 361, 362, 443, 442, 523, 524, 605, 604
198, 362, 363, 444, 443, 524, 525, 606, 605
199, 363, 364, 445, 444, 525, 526, 607, 606
200, 364, 365, 446, 445, 526, 527, 608, 607
201, 365, 366, 447, 446, 527, 528, 609, 608
202, 366, 367, 448, 447, 528, 529, 610, 609
203, 367, 368, 449, 448, 529, 530, 611, 610
204, 368, 369, 450, 449, 530, 531, 612, 611
205, 369, 370, 451, 450, 531, 532, 613, 612
206, 370, 371, 452, 451, 532, 533, 614, 613
207, 371, 372, 453, 452, 533, 534, 615, 614
208, 372, 373, 454, 453, 534, 535, 616, 615
209, 373, 374, 455, 454, 535, 536, 617, 616
210, 374, 375, 456, 455, 536, 537, 618, 617
211, 375, 376, 457, 456, 537, 538, 619, 618
212, 376, 377, 458, 457, 538, 539, 620, 619
213, 377, 378, 459, 458, 539, 540, 621, 620
214, 378, 379, 460, 459, 540, 541, 622, 621
215, 379, 380, 461, 460, 541, 542, 623, 622
216, 380, 381, 462, 461, 542, 543, 624, 623
217, 381, 382, 463, 462, 543, 544, 625, 624
218, 382, 383, 464, 463, 544, 545, 626, 625
219, 383, 384, 465, 464, 545, 546, 627, 626
220, 384, 385, 466, 465, 546, 547, 628, 627
221, 385, 386, 467, 466, 547, 548, 629, 628
222, 386, 387, 468, 467, 548, 549, 630, 629
223, 387, 388, 469, 468, 549, 550, 631, 630
224, 388, 389, 470, 469, 550, 551, 632, 631
225, 389, 390, 471, 470, 551, 552, 633, 632
226, 390, 391, 472, 471, 552, 553, 634, 633
227, 391, 392, 473, 472, 553, 554, 635, 634
228, 392, 393, 474, 473, 554, 555, 636, 635
229, 393, 394, 475, 474, 555, 556, 637, 636
230, 394, 395, 476, 475, 556, 557, 638, 637
231, 395, 396, 477, 476, 557, 558, 639, 638
232, 396, 397, 478, 477, 558, 559, 640, 639
233, 397, 398, 479, 478, 559, 560, 641, 640
234, 398, 399, 480, 479, 560, 561, 642, 641
235, 399, 400, 481, 480, 561, 562, 643, 642
236, 400, 401, 482, 481, 562, 563, 644, 643
237, 401, 402, 483, 482, 563, 564, 645, 644
238, 402, 403, 484, 483, 564, 565, 646, 645
239, 403, 404, 485, 484, 565, 566, 647, 646
240, 404, 405, 486, 485, 566, 567, 648, 647
241, 487, 488, 569, 568, 649, 650, 731, 730
242, 488, 489, 570, 569, 650, 651, 732, 731
243, 489, 490, 571, 570, 651, 652, 733, 732
244, 490, 491, 572, 571, 652, 653, 734, 733
245, 491, 492, 573, 572, 653, 654, 735, 734
246, 492, 493, 574, 573, 654, 655, 736, 735
247, 493, 494, 575, 574, 655, 656, 737, 736
248, 494, 495, 576, 575, 656, 657, 738, 737
249, 495, 496, 577, 576, 657, 658, 739, 738
250, 496, 497, 578, 577, 658, 659, 740, 739
251, 497, 498, 579, 578, 659, 660, 741, 740
252, 498, 499, 580, 579, 660, 661, 742, 741
253, 499, 500, 581, 580, 661, 662, 743, 742
254, 500, 501, 582, 581, 662, 663, 744, 743
255, 501, 502, 583, 582, 663, 664, 745, 744
256, 502, 503, 584, 583, 664, 665, 746, 745
257, 503, 504, 585, 584, 665, 666, 747, 746
258, 504, 505, 586, 585, 666, 667, 748, 747
259, 505, 506, 587, 586, 667, 668, 749, 748
260, 506, 507, 588, 587, 668, 669, 750, 749
261, 507, 508, 589, 588, 669, 670, 751, 750
262, 508, 509, 590, 589, 670, 671, 752, 751
263, 509, 510, 591, 590, 671, 672, 753, 752
264, 510, 511, 592, 591, 672, 673, 754, 753
265, 511, 512, 593, 592, 673, 674, 755, 754
266, 512, 513, 594, 593, 674, 675, 756, 755
267, 513, 514, 595, 594, 675, 676, 757, 756
268, 514, 515, 596, 595, 676, 677, 758, 757
269, 515, 516, 597, 596, 677, 678, 759, 758
270, 516, 517, 598, 597, 678, 679, 760, 759
271, 517, 518, 599, 598, 679, 680, 761, 760
272, 518, 519, 600, 599, 680, 681, 762, 761
273, 519, 520, 601, 600, 681, 682, 763, 762
274, 520, 521, 602, 601, 682, 683, 764, 763
275, 521, 522, 603, 602, 683, 684, 765, 764
276, 522, 523, 604, 603, 684, 685, 766, 765
277, 523, 524, 605, 604, 685, 686, 767, 766
278, 524, 525, 606, 605, 686, 687, 768, 767
279, 525, 526, 607, 606, 687, 688, 769, 768
280, 526, 527, 608, 607, 688, 689, 770, 769
281, 527, 528, 609, 608, 689, 690, 771, 770
282, 528, 529, 610, 609, 690, 691, 772, 771
283, 529, 530, 611, 610, 691, 692, 773, 772
284, 530, 531, 612, 611, 692, 693, 774, 773
285, 531, 532, 613, 612, 693, 694, 775, 774
286, 532, 533, 614, 613, 694, 695, 776, 775
287, 533, 534, 615, 614, 695, 696, 777, 776
288, 534, 535, 616, 615, 696, 697, 778, 777
289, 535, 536, 617, 616, 697, 698, 779, 778
290, 536, 537, 618, 617, 698, 699, 780, 779
291, 537, 538, 619, 618, 699, 700, 781, 780
292, 538, 539, 620, 619, 700, 701, 782, 781
293, 539, 540, 621, 620, 701, 702, 783, 782
294, 540, 541, 622, 621, 702, 703, 784, 783
295, 541, 542, 623, 622, 703, 704, 785, 784
296, 542, 543, 624, 623, 704, 705, 786, 785
297, 543, 544, 625, 624, 705, 706, 787, 786
298, 544, 545, 626, 625, 706, 707, 788, 787
299, 545, 546, 627, 626, 707, 708, 789, 788
300, 546, 547, 628, 627, 708, 709, 790, 789
301, 547, 548, 629, 628, 709, 710, 791, 790
302, 548, 549, 630, 629, 710, 711, 792, 791
303, 549, 550, 631, 630, 711, 712, 793, 792
304, 550, 551, 632, 631, 712, 713, 794, 793
305, 551, 552, 633, 632, 713, 714, 795, 794
306, 552, 553, 634, 633, 714, 715, 796, 795
307, 553, 554, 635, 634, 715, 716, 797, 796
308, 554, 555, 636, 635, 716, 717, 798, 797
309, 555, 556, 637, 636, 717, 718, 799, 798
310, 556, 557, 638, 637, 718, 719, 800, 799
311, 557, 558, 639, 638, 719, 720, 801, 800
312, 558, 559, 640, 639, 720, 721, 802, 801
313, 559, 560, 641, 640, 721, 722, 803, 802
314, 560, 561, 642, 641, 722, 723, 804, 803
315, 561, 562, 643, 642, 723, 724, 805, 804
316, 562, 563, 644, 643, 724, 725, 806, 805
317, 563, 564, 645, 644, 725, 726, 807, 806
318, 564, 565, 646, 645, 726, 727, 808, 807
319, 565, 566, 647, 646, 727, 728, 809, 808
320, 566, 567, 648, 647, 728, 729, 810, 809
*ELEMENT, TYPE=C3D8, ELSET=TOOL
321, 811, 812, 1013, 1012, 1213, 1214, 1415, 1414
322, 812, 813, 1014, 1013, 1214, 1215, 1416, 1415
323, 813, 814, 1015, 1014, 1215, 1216, 1417, 1416
324, 814, 815, 1016, 1015, 1216, 1217, 1418, 1417
325, 815, 816, 1017, 1016, 1217, 1218, 1419, 1418
326, 816, 817, 1018, 1017, 1218, 1219, 1420, 1419
327, 817, 818, 1019, 1018, 1219, 1220, 1421, 1420
328, 818, 819, 1020, 1019, 1220, 1221, 1422, 1421
329, 819, 820, 1021, 1020, 1221, 1222, 1423, 1422
330, 820, 821, 1022, 1021, 1222, 1223, 1424, 1423
331, 821, 822, 1023, 1022, 1223, 1224, 1425, 1424
332, 822, 823, 1024, 1023, 1224, 1225, 1426, 1425
333, 823, 824, 1025, 1024, 1225, 1226, 1427, 1426
334, 824, 825, 1026, 1025, 1226, 1227, 1428, 1427
335, 825, 826, 1027, 1026, 1227, 1228, 1429, 1428
336, 826, 827, 1028, 1027, 1228, 1229, 1430, 1429
337, 827, 828, 1029, 1028, 1229, 1230, 1431, 1430
338, 828, 829, 1030, 1029, 1230, 1231, 1432, 1431
339, 829, 830, 1031, 1030, 1231, 1232, 1433, 1432
340, 830, 831, 1032, 1031, 1232, 1233, 1434, 1433
341, 831, 832, 1033, 1032, 1233, 1234, 1435, 1434
342, 832, 833, 1034, 1033, 1234, 1235, 1436, 1435
343, 833, 834, 1035, 1034, 1235, 1236, 1437, 1436
344, 834, 835, 1036, 1035, 1236, 1237, 1438, 1437
345, 835, 836, 1037, 1036, 1237, 1238, 1439, 1438
346, 836, 837, 1038, 1037, 1238, 1239, 1440, 1439
347, 837, 838, 1039, 1038, 1239, 1240, 1441, 1440
348, 838, 839, 1040, 1039, 1240, 1241, 1442, 1441
349, 839, 840, 1041, 1040, 1241, 1242, 1443, 1442
350, 840, 841, 1042, 1041, 1242, 1243, 1444, 1443
351, 841, 842, 1043, 1042, 1243, 1244, 1445, 1444
352, 842, 843, 1044, 1043, 1244, 1245, 1446, 1445
353, 843, 844, 1045, 1044, 1245, 1246, 1447, 1446
354, 844, 845, 1046, 1045, 1246, 1247, 1448, 1447
355, 845, 846, 1047, 1046, 1247, 1248, 1449, 1448
356, 846, 847, 1048, 1047, 1248, 1249, 1450, 1449
357, 847, 848, 1049, 1048, 1249, 1250, 1451, 1450
358, 848, 849, 1050, 1049, 1250, 1251, 1452, 1451
359, 849, 850, 1051, 1050, 1251, 1252, 1453, 1452
360, 850, 851, 1052, 1051, 1252, 1253, 1454, 1453
361, 851, 852, 1053, 1052, 1253, 1254, 1455, 1454
362, 852, 853, 1054, 1053, 1254, 1255, 1456, 1455
363, 853, 854, 1055, 1054, 1255, 1256, 1457, 1456
364, 854, 855, 1056, 1055, 1256, 1257, 1458, 1457
365, 855, 856, 1057, 1056, 1257, 1258, 1459, 1458
366, 856, 857, 1058, 1057, 1258, 1259, 1460, 1459
367, 857, 858, 1059, 1058, 1259, 1260, 1461, 1460
368, 858, 859, 1060, 1059, 1260, 1261, 1462, 1461
369, 859, 860, 1061, 1060, 1261, 1262, 1463, 1462
370, 860, 861, 1062, 1061, 1262, 1263, 1464, 1463
371, 861, 862, 1063, 1062, 1263, 1264, 1465, 1464
372, 862, 863, 1064, 1063, 1264, 1265, 1466, 1465
373, 863, 864, 1065, 1064, 1265, 1266, 1467, 1466
374, 864, 865, 1066, 1065, 1266, 1267, 1468, 1467
375, 865, 866, 1067, 1066, 1267, 1268, 1469, 1468
376, 866, 867, 1068, 1067, 1268, 1269, 1470, 1469
377, 867, 868, 1069, 1068, 1269, 1270, 1471, 1470
378, 868, 869, 1070, 1069, 1270, 1271, 1472, 1471
379, 869, 870, 1071, 1070, 1271, 1272, 1473, 1472
380, 870, 871, 1072, 1071, 1272, 1273, 1474, 1473
381, 871, 872, 1073, 1072, 1273, 1274, 1475, 1474
382, 872, 873, 1074, 1073, 1274, 1275, 1476, 1475
383, 873, 874, 1075, 1074, 1275, 1276, 1477, 1476
384, 874, 875, 1076, 1075, 1276, 1277, 1478, 1477
385, 875, 876, 1077, 1076, 1277, 1278, 1479, 1478
386, 876, 877, 1078, 1077, 1278, 1279, 1480, 1479
387, 877, 878, 1079, 1078, 1279, 1280, 1481, 1480
388, 878, 879, 1080, 1079, 1280, 1281, 1482, 1481
389, 879, 880, 1081, 1080, 1281, 1282, 1483, 1482
390, 880, 881, 1082, 1081, 1282, 1283, 1484, 1483
391, 881, 882, 1083, 1082, 1283, 1284, 1485, 1484
392, 882, 883, 1084, 1083, 1284, 1285, 1486, 1485
393, 883, 884, 1085, 1084, 1285, 1286, 1487, 1486
394, 884, 885, 1086, 1085, 1286, 1287, 1488, 1487
395, 885, 886, 1087, 1086, 1287, 1288, 1489, 1488
396, 886, 887, 1088, 1087, 1288, 1289, 1490, 1489
397, 887, 888, 1089, 1088, 1289, 1290, 1491, 1490
398, 888, 889, 1090, 1089, 1290, 1291, 1492, 1491
399, 889, 890, 1091, 1090, 1291, 1292, 1493, 1492
400, 890, 891, 1092, 1091, 1292, 1293, 1494, 1493
401, 891, 892, 1093, 1092, 1293, 1294, 1495, 1494
402, 892, 893, 1094, 1093, 1294, 1295, 1496, 1495
403, 893, 894, 1095, 1094, 1295, 1296, 1497, 1496
404, 894, 895, 1096, 1095, 1296, 1297, 1498, 1497
405, 895, 896, 1097, 1096, 1297, 1298, 1499, 1498
406, 896, 897, 1098, 1097, 1298, 1299, 1500, 1499
407, 897, 898, 1099, 1098, 1299, 1300, 1501, 1500
408, 898, 899, 1100, 1099, 1300, 1301, 1502, 1501
409, 899, 900, 1101, 1100, 1301, 1302, 1503, 1502
410, 900, 901, 1102, 1101, 1302, 1303, 1504, 1503
411, 901, 902, 1103, 1102, 1303, 1304, 1505, 1504
412, 902, 903, 1104, 1103, 1304, 1305, 1506, 1505
413, 903, 904, 1105, 1104, 1305, 1306, 1507, 1506
414, 904, 905, 1106, 1105, 1306, 1307, 1508, 1507
415, 905, 906, 1107, 1106, 1307, 1308, 1509, 1508
416, 906, 907, 1108, 1107, 1308, 1309, 1510, 1509
417, 907, 908, 1109, 1108, 1309, 1310, 1511, 1510
418, 908, 909, 1110, 1109, 1310, 1311, 1512, 1511
419, 909, 910, 1111, 1110, 1311, 1312, 1513, 1512
420, 910, 911, 1112, 1111, 1312, 1313, 1514, 1513
421, 911, 912, 1113, 1112, 1313, 1314, 1515, 1514
422, 912, 913, 1114, 1113, 1314, 1315, 1516, 1515
423, 913, 914, 1115, 1114, 1315, 1316, 1517, 1516
424, 914, 915, 1116, 1115, 1316, 1317, 1518, 1517
425, 915, 916, 1117, 1116, 1317, 1318, 1519, 1518
426, 916, 917, 1118, 1117, 1318, 1319, 1520, 1519
427, 917, 918, 1119, 1118, 1319, 1320, 1521, 1520
428, 918, 919, 1120, 1119, 1320, 1321, 1522, 1521
429, 919, 920, 1121, 1120, 1321, 1322, 1523, 1522
430, 920, 921, 1122, 1121, 1322, 1323, 1524, 1523
431, 921, 922, 1123, 1122, 1323, 1324, 1525, 1524
432, 922, 923, 1124, 1123, 1324, 1325, 1526, 1525
433, 923, 924, 1125, 1124, 1325, 1326, 1527, 1526
434, 924, 925, 1126, 1125, 1326, 1327, 1528, 1527
435, 925, 926, 1127, 1126, 1327, 1328, 1529, 1528
436, 926, 927, 1128, 1127, 1328, 1329, 1530, 1529
437, 927, 928, 1129, 1128, 1329, 1330, 1531, 1530
438, 928, 929, 1130, 1129, 1330, 1331, 1532, 1531
439, 929, 930, 1131, 1130, 1331, 1332, 1533, 1532
440, 930, 931, 1132, 1131, 1332, 1333, 1534, 1533
441, 931, 932, 1133, 1132, 1333, 1334, 1535, 1534
442, 932, 933, 1134, 1133, 1334, 1335, 1536, 1535
443, 933, 934, 1135, 1134, 1335, 1336, 1537, 1536
444, 934, 935, 1136, 1135, 1336, 1337, 1538, 1537
445, 935, 936, 1137, 1136, 1337, 1338, 1539, 1538
446, 936, 937, 1138, 1137, 1338, 1339, 1540, 1539
447, 937, 938, 1139, 1138, 1339, 1340, 1541, 1540
448, 938, 939, 1140, 1139, 1340, 1341, 1542, 1541
449, 939, 940, 1141, 1140, 1341, 1342, 1543, 1542
450, 940, 941, 1142, 1141, 1342, 1343, 1544, 1543
451, 941, 942, 1143, 1142, 1343, 1344, 1545, 1544
452, 942, 943, 1144, 1143, 1344, 1345, 1546, 1545
453, 943, 944, 1145, 1144, 1345, 1346, 1547, 1546
454, 944, 945, 1146, 1145, 1346, 1347, 1548, 1547
455, 945, 946, 1147, 1146, 1347, 1348, 1549, 1548
456, 946, 947, 1148, 1147, 1348, 1349, 1550, 1549
457, 947, 948, 1149, 1148, 1349, 1350, 1551, 1550
458, 948, 949, 1150, 1149, 1350, 1351, 1552, 1551
459, 949, 950, 1151, 1150, 1351, 1352, 1553, 1552
460, 950, 951, 1152, 1151, 1352, 1353, 1554, 1553
461, 951, 952, 1153, 1152, 1353, 1354, 1555, 1554
462, 952, 953, 1154, 1153, 1354, 1355, 1556, 1555
463, 953, 954, 1155, 1154, 1355, 1356, 1557, 1556
464, 954, 955, 1156, 1155, 1356, 1357, 1558, 1557
465, 955, 956, 1157, 1156, 1357, 1358, 1559, 1558
466, 956, 957, 1158, 1157, 1358, 1359, 1560, 1559
467, 957, 958, 1159, 1158, 1359, 1360, 1561, 1560
468, 958, 959, 1160, 1159, 1360, 1361, 1562, 1561
469, 959, 960, 1161, 1160, 1361, 1362, 1563, 1562
470, 960, 961, 1162, 1161, 1362, 1363, 1564, 1563
471, 961, 962, 1163, 1162, 1363, 1364, 1565, 1564
472, 962, 963, 1164, 1163, 1364, 1365, 1566, 1565
473, 963, 964, 1165, 1164, 1365, 1366, 1567, 1566
474, 964, 965, 1166, 1165, 1366, 1367, 1568, 1567
475, 965, 966, 1167, 1166, 1367, 1368, 1569, 1568
476, 966, 967, 1168, 1167, 1368, 1369, 1570, 1569
477, 967, 968, 1169, 1168, 1369, 1370, 1571, 1570
478, 968, 969, 1170, 1169, 1370, 1371, 1572, 1571
479, 969, 970, 1171, 1170, 1371, 1372, 1573, 1572
480, 970, 971, 1172, 1171, 1372, 1373, 1574, 1573
481, 971, 972, 1173, 1172, 1373, 1374, 1575, 1574
482, 972, 973, 1174, 1173, 1374, 1375, 1576, 1575
483, 973, 974, 1175, 1174, 1375, 1376, 1577, 1576
484, 974, 975, 1176, 1175, 1376, 1377, 1578, 1577
485, 975, 976, 1177, 1176, 1377, 1378, 1579, 1578
486, 976, 977, 1178, 1177, 1378, 1379, 1580, 1579
487, 977, 978, 1179, 1178, 1379, 1380, 1581, 1580
488, 978, 979, 1180, 1179, 1380, 1381, 1582, 1581
489, 979, 980, 1181, 1180, 1381, 1382, 1583, 1582
490, 980, 981, 1182, 1181, 1382, 1383, 1584, 1583
491, 981, 982, 1183, 1182, 1383, 1384, 1585, 1584
492, 982, 983, 1184, 1183, 1384, 1385, 1586, 1585
493, 983, 984, 1185, 1184, 1385, 1386, 1587, 1586
494, 984, 985, 1186, 1185, 1386, 1387, 1588, 1587
495, 985, 986, 1187, 1186, 1387, 1388, 1589, 1588
496, 986, 987, 1188, 1187, 1388, 1389, 1590, 1589
497, 987, 988, 1189, 1188, 1389, 1390, 1591, 1590
498, 988, 989, 1190, 1189, 1390, 1391, 1592, 1591
499, 989, 990, 1191, 1190, 1391, 1392, 1593, 1592
500, 990, 991, 1192, 1191, 1392, 1393, 1594, 1593
501, 991, 992, 1193, 1192, 1393, 1394, 1595, 1594
502, 992, 993, 1194, 1193, 1394, 1395, 1596, 1595
503, 993, 994, 1195, 1194, 1395, 1396, 1597, 1596
504, 994, 995, 1196, 1195, 1396, 1397, 1598, 1597
505, 995, 996, 1197, 1196, 1397, 1398, 1599, 1598
506, 996, 997, 1198, 1197, 1398, 1399, 1600, 1599
507, 997, 998, 1199, 1198, 1399, 1400, 1601, 1600
508, 998, 999, 1200, 1199, 1400, 1401, 1602, 1601
509, 999, 1000, 1201, 1200, 1401, 1402, 1603, 1602
510, 1000, 1001, 1202, 1201, 1402, 1403, 1604, 1603
511, 1001, 1002, 1203, 1202, 1403, 1404, 1605, 1604
512, 1002, 1003, 1204, 1203, 1404, 1405, 1606, 1605
513, 1003, 1004, 1205, 1204, 1405, 1406, 1607, 1606
514, 1004, 1005, 1206, 1205, 1406, 1407, 1608, 1607
515, 1005, 1006, 1207, 1206, 1407, 1408, 1609, 1608
516, 1006, 1007, 1208, 1207, 1408, 1409, 1610, 1609
517, 1007, 1008, 1209, 1208, 1409, 1410, 1611, 1610
518, 1008, 1009, 1210, 1209, 1410, 1411, 1612, 1611
519, 1009, 1010, 1211, 1210, 1411, 1412, 1613, 1612
520, 1010, 1011, 1212, 1211, 1412, 1413, 1614, 1613
*NSET, NSET=CLAMP
1, 2, 3, 4, 5, 6, 7, 8, 9, 10, 11, 71
72, 73, 74, 75, 76, 77, 78, 79, 80, 81, 82, 83
84, 85, 86, 87, 88, 89, 90, 91, 92, 152, 153, 154
155, 156, 157, 158, 159, 160, 161, 162, 163, 164, 165, 166
167, 168, 169, 170, 171, 172, 173, 233, 234, 235, 236, 237
238, 239, 240, 241, 242, 243, 244, 245, 246, 247, 248, 249
250, 251, 252, 253, 254, 314, 315, 316, 317, 318, 319, 320
321, 322, 323, 324, 325, 326, 327, 328, 329, 330, 331, 332
333, 334, 335, 395, 396, 397, 398, 399, 400, 401, 402, 403
404, 405, 406, 407, 408, 409, 410, 411, 412, 413, 414, 415
416, 476, 477, 478, 479, 480, 481, 482, 483, 484, 485, 486
487, 488, 489, 490, 491, 492, 493, 494, 495, 496, 497, 557
558, 559, 560, 561, 562, 563, 564, 565, 566, 567, 568, 569
570, 571, 572, 573, 574, 575, 576, 577, 578, 638, 639, 640
641, 642, 643, 644, 645, 646, 647, 648, 649, 650, 651, 652
653, 654, 655, 656, 657, 658, 659, 719, 720, 721, 722, 723
724, 725, 726, 727, 728, 729, 730, 731, 732, 733, 734, 735
736, 737, 738, 739, 740, 800, 801, 802, 803, 804, 805, 806
807, 808, 809, 810
*NSET, NSET=SUPA
653, 734
*NSET, NSET=SUPB
725, 806
*NSET, NSET=NTOP
649, 650, 651, 652, 653, 654, 655, 656, 657, 658, 659, 660
661, 662, 663, 664, 665, 666, 667, 668, 669, 670, 671, 672
673, 674, 675, 676, 677, 678, 679, 680, 681, 682, 683, 684
685, 686, 687, 688, 689, 690, 691, 692, 693, 694, 695, 696
697, 698, 699, 700, 701, 702, 703, 704, 705, 706, 707, 708
709, 710, 711, 712, 713, 714, 715, 716, 717, 718, 719, 720
721, 722, 723, 724, 725, 726, 727, 728, 729, 730, 731, 732
733, 734, 735, 736, 737, 738, 739, 740, 741, 742, 743, 744
745, 746, 747, 748, 749, 750, 751, 752, 753, 754, 755, 756
757, 758, 759, 760, 761, 762, 763, 764, 765, 766, 767, 768
769, 770, 771, 772, 773, 774, 775, 776, 777, 778, 779, 780
781, 782, 783, 784, 785, 786, 787, 788, 789, 790, 791, 792
793, 794, 795, 796, 797, 798, 799, 800, 801, 802, 803, 804
805, 806, 807, 808, 809, 810
*ELSET, ELSET=ETOPL
241, 242, 243, 244, 245, 246, 247, 248, 249, 250, 251, 252
253, 254, 255, 256, 257, 258, 259, 260, 261, 262, 263, 264
265, 266, 267, 268, 269, 270, 271, 272, 273, 274, 275, 276
277, 278, 279, 280, 281, 282, 283, 284, 285, 286, 287, 288
289, 290, 291, 292, 293, 294, 295, 296, 297, 298, 299, 300
301, 302, 303, 304, 305, 306, 307, 308, 309, 310, 311, 312
313, 314, 315, 316, 317, 318, 319, 320
*SURFACE, NAME=SSLAVE, TYPE=ELEMENT
ETOPL, S2
*SURFACE, NAME=SMASTER, TYPE=ELEMENT
321, S1
322, S1
323, S1
324, S1
325, S1
326, S1
327, S1
328, S1
329, S1
330, S1
331, S1
332, S1
333, S1
334, S1
335, S1
336, S1
337, S1
338, S1
339, S1
340, S1
341, S1
342, S1
343, S1
344, S1
345, S1
346, S1
347, S1
348, S1
349, S1
350, S1
351, S1
352, S1
353, S1
354, S1
355, S1
356, S1
357, S1
358, S1
359, S1
360, S1
361, S1
362, S1
363, S1
364, S1
365, S1
366, S1
367, S1
368, S1
369, S1
370, S1
371, S1
372, S1
373, S1
374, S1
375, S1
376, S1
377, S1
378, S1
379, S1
380, S1
381, S1
382, S1
383, S1
384, S1
385, S1
386, S1
387, S1
388, S1
389, S1
390, S1
391, S1
392, S1
393, S1
394, S1
395, S1
396, S1
397, S1
398, S1
399, S1
400, S1
401, S1
402, S1
403, S1
404, S1
405, S1
406, S1
407, S1
408, S1
409, S1
410, S1
411, S1
412, S1
413, S1
414, S1
415, S1
416, S1
417, S1
418, S1
419, S1
420, S1
421, S1
422, S1
423, S1
424, S1
425, S1
426, S1
427, S1
428, S1
429, S1
430, S1
431, S1
432, S1
433, S1
434, S1
435, S1
436, S1
437, S1
438, S1
439, S1
440, S1
441, S1
442, S1
443, S1
444, S1
445, S1
446, S1
447, S1
448, S1
449, S1
450, S1
451, S1
452, S1
453, S1
454, S1
455, S1
456, S1
457, S1
458, S1
459, S1
460, S1
461, S1
462, S1
463, S1
464, S1
465, S1
466, S1
467, S1
468, S1
469, S1
470, S1
471, S1
472, S1
473, S1
474, S1
475, S1
476, S1
477, S1
478, S1
479, S1
480, S1
481, S1
482, S1
483, S1
484, S1
485, S1
486, S1
487, S1
488, S1
489, S1
490, S1
491, S1
492, S1
493, S1
494, S1
495, S1
496, S1
497, S1
498, S1
499, S1
500, S1
501, S1
502, S1
503, S1
504, S1
505, S1
506, S1
507, S1
508, S1
509, S1
510, S1
511, S1
512, S1
513, S1
514, S1
515, S1
516, S1
517, S1
518, S1
519, S1
520, S1
*MATERIAL, NAME=AL
*ELASTIC
70000, 0.33
*PLASTIC
100, 0
102.005739, 0.001
103.986239, 0.002
105.94186, 0.003
107.872956, 0.004
109.779878, 0.005
111.662972, 0.006
113.522577, 0.007
115.359028, 0.008
117.172657, 0.009
118.963788, 0.01
120.732743, 0.011
122.479839, 0.012
124.205387, 0.013
125.909695, 0.014
127.593067, 0.015
129.255801, 0.016
130.898192, 0.017
132.52053, 0.018
134.123101, 0.019
135.706188, 0.02
137.270069, 0.021
138.815018, 0.022
140.341305, 0.023
141.849196, 0.024
143.338954, 0.025
144.810839, 0.026
146.265105, 0.027
147.702003, 0.028
149.121781, 0.029
150.524685, 0.03
151.910955, 0.031
153.280827, 0.032
154.634537, 0.033
155.972315, 0.034
157.294389, 0.035
158.600982, 0.036
159.892316, 0.037
161.168608, 0.038
162.430073, 0.039
163.676923, 0.04
164.909367, 0.041
166.127609, 0.042
167.331854, 0.043
168.5223, 0.044
169.699144, 0.045
170.862581, 0.046
172.012803, 0.047
173.149997, 0.048
174.27435, 0.049
175.386045, 0.05
176.485262, 0.051
177.57218, 0.052
178.646975, 0.053
179.70982, 0.054
180.760884, 0.055
181.800336, 0.056
182.828343, 0.057
183.845067, 0.058
184.850669, 0.059
185.845308, 0.06
186.829141, 0.061
187.802322, 0.062
188.765003, 0.063
189.717334, 0.064
190.659462, 0.065
191.591533, 0.066
192.513692, 0.067
193.426078, 0.068
194.328833, 0.069
195.222092, 0.07
196.105993, 0.071
196.980668, 0.072
197.846249, 0.073
198.702866, 0.074
199.550646, 0.075
200.389717, 0.076
201.220202, 0.077
202.042224, 0.078
202.855904, 0.079
203.661361, 0.08
204.458711, 0.081
205.248072, 0.082
206.029556, 0.083
206.803277, 0.084
207.569345, 0.085
208.32787, 0.086
209.078958, 0.087
209.822717, 0.088
210.559251, 0.089
211.288663, 0.09
212.011054, 0.091
212.726526, 0.092
213.435176, 0.093
214.137102, 0.094
214.8324, 0.095
215.521165, 0.096
216.20349, 0.097
216.879466, 0.098
217.549185, 0.099
218.212736, 0.1
218.870207, 0.101
219.521684, 0.102
220.167254, 0.103
220.807, 0.104
221.441005, 0.105
222.069352, 0.106
222.692122, 0.107
223.309393, 0.108
223.921245, 0.109
224.527755, 0.11
225.128999, 0.111
225.725052, 0.112
226.315989, 0.113
226.901882, 0.114
227.482803, 0.115
228.058823, 0.116
228.630013, 0.117
229.196441, 0.118
229.758176, 0.119
230.315283, 0.12
230.86783, 0.121
231.415882, 0.122
231.959501, 0.123
232.498753, 0.124
233.033699, 0.125
233.5644, 0.126
234.090918, 0.127
234.613311, 0.128
235.13164, 0.129
235.645961, 0.13
236.156332, 0.131
236.66281, 0.132
237.16545, 0.133
237.664306, 0.134
238.159434, 0.135
238.650885, 0.136
239.138713, 0.137
239.622969, 0.138
240.103704, 0.139
240.580969, 0.14
241.054813, 0.141
241.525284, 0.142
241.992432, 0.143
242.456303, 0.144
242.916944, 0.145
243.374402, 0.146
243.828721, 0.147
244.279947, 0.148
244.728123, 0.149
245.173294, 0.15
245.615502, 0.151
246.054789, 0.152
246.491198, 0.153
246.924768, 0.154
247.355542, 0.155
247.783558, 0.156
248.208856, 0.157
248.631475, 0.158
249.051453, 0.159
249.468828, 0.16
249.883636, 0.161
250.295915, 0.162
250.705701, 0.163
251.113029, 0.164
251.517935, 0.165
251.920452, 0.166
252.320616, 0.167
252.718459, 0.168
253.114014, 0.169
253.507316, 0.17
253.898394, 0.171
254.287282, 0.172
254.674011, 0.173
255.058611, 0.174
255.441112, 0.175
255.821546, 0.176
256.19994, 0.177
256.576325, 0.178
256.95073, 0.179
257.323181, 0.18
257.693707, 0.181
258.062337, 0.182
258.429096, 0.183
258.794011, 0.184
259.157109, 0.185
259.518416, 0.186
259.877957, 0.187
260.235758, 0.188
260.591843, 0.189
260.946237, 0.19
261.298963, 0.191
261.650047, 0.192
261.999511, 0.193
262.347378, 0.194
262.693671, 0.195
263.038413, 0.196
263.381625, 0.197
263.72333, 0.198
264.063549, 0.199
264.402304, 0.2
264.739614, 0.201
265.075502, 0.202
265.409986, 0.203
265.743088, 0.204
266.074827, 0.205
266.405222, 0.206
266.734292, 0.207
267.062057, 0.208
267.388535, 0.209
267.713744, 0.21
268.037703, 0.211
268.36043, 0.212
268.681941, 0.213
269.002255, 0.214
269.321388, 0.215
269.639358, 0.216
269.95618, 0.217
270.271872, 0.218
270.586449, 0.219
270.899927, 0.22
271.212323, 0.221
271.523651, 0.222
271.833926, 0.223
272.143164, 0.224
272.45138, 0.225
272.758588, 0.226
273.064803, 0.227
273.370038, 0.228
273.674308, 0.229
273.977626, 0.23
274.280007, 0.231
274.581462, 0.232
274.882007, 0.233
275.181653, 0.234
275.480414, 0.235
275.778301, 0.236
276.075328, 0.237
276.371508, 0.238
276.666851, 0.239
276.961369, 0.24
277.255076, 0.241
277.547982, 0.242
277.840098, 0.243
278.131437, 0.244
278.422008, 0.245
278.711824, 0.246
279.000894, 0.247
279.28923, 0.248
279.576841, 0.249
279.863739, 0.25
280.149933, 0.251
280.435434, 0.252
280.720251, 0.253
281.004395, 0.254
281.287874, 0.255
281.570698, 0.256
281.852877, 0.257
282.13442, 0.258
282.415335, 0.259
282.695633, 0.26
282.975321, 0.261
283.254408, 0.262
283.532904, 0.263
283.810815, 0.264
284.088152, 0.265
284.364921, 0.266
284.641132, 0.267
284.916791, 0.268
285.191907, 0.269
285.466488, 0.27
285.740541, 0.271
286.014074, 0.272
286.287094, 0.273
286.559609, 0.274
286.831626, 0.275
287.103151, 0.276
287.374192, 0.277
287.644756, 0.278
287.91485, 0.279
288.18448, 0.28
288.453653, 0.281
288.722375, 0.282
288.990653, 0.283
289.258493, 0.284
289.525902, 0.285
289.792886, 0.286
290.05945, 0.287
290.325601, 0.288
290.591345, 0.289
290.856687, 0.29
291.121633, 0.291
291.386189, 0.292
291.65036, 0.293
291.914152, 0.294
292.17757, 0.295
292.44062, 0.296
292.703307, 0.297
292.965636, 0.298
293.227612, 0.299
293.48924, 0.3
296.087451, 0.31
298.655918, 0.32
301.198624, 0.33
303.71902, 0.34
306.220093, 0.35
308.70443, 0.36
311.174273, 0.37
313.631564, 0.38
316.077982, 0.39
318.514984, 0.4
320.943831, 0.41
323.365615, 0.42
325.781282, 0.43
328.191651, 0.44
330.597432, 0.45
332.999239, 0.46
335.397604, 0.47
337.792988, 0.48
340.18579, 0.49
342.576356, 0.5
344.964986, 0.51
347.351939, 0.52
349.737439, 0.53
352.121681, 0.54
354.504834, 0.55
356.887043, 0.56
359.268435, 0.57
361.649118, 0.58
364.029189, 0.59
366.408729, 0.6
368.787809, 0.61
371.166491, 0.62
373.544827, 0.63
375.922866, 0.64
378.300645, 0.65
380.6782, 0.66
383.055561, 0.67
385.432754, 0.68
387.809802, 0.69
390.186723, 0.7
392.563536, 0.71
394.940253, 0.72
397.316889, 0.73
399.693454, 0.74
402.069957, 0.75
404.446407, 0.76
406.822811, 0.77
409.199176, 0.78
411.575505, 0.79
413.951805, 0.8
416.328079, 0.81
418.70433, 0.82
421.080562, 0.83
423.456777, 0.84
425.832977, 0.85
428.209165, 0.86
430.585342, 0.87
432.961509, 0.88
435.337668, 0.89
437.71382, 0.9
440.089966, 0.91
442.466107, 0.92
444.842243, 0.93
447.218375, 0.94
449.594503, 0.95
451.970629, 0.96
454.346751, 0.97
456.722872, 0.98
459.098991, 0.99
461.475108, 1
463.851223, 1.01
466.227337, 1.02
468.603451, 1.03
470.979563, 1.04
473.355674, 1.05
475.731785, 1.06
478.107895, 1.07
480.484004, 1.08
482.860113, 1.09
485.236222, 1.1
487.61233, 1.11
489.988438, 1.12
492.364546, 1.13
494.740654, 1.14
497.116761, 1.15
499.492868, 1.16
501.868975, 1.17
504.245082, 1.18
506.621189, 1.19
508.997295, 1.2
511.373402, 1.21
513.749508, 1.22
516.125615, 1.23
518.501721, 1.24
520.877828, 1.25
523.253934, 1.26
525.63004, 1.27
528.006146, 1.28
530.382253, 1.29
532.758359, 1.3
535.134465, 1.31
537.510571, 1.32
539.886677, 1.33
542.262783, 1.34
544.63889, 1.35
547.014996, 1.36
549.391102, 1.37
551.767208, 1.38
554.143314, 1.39
556.51942, 1.4
558.895526, 1.41
561.271632, 1.42
563.647738, 1.43
566.023844, 1.44
568.399951, 1.45
570.776057, 1.46
573.152163, 1.47
575.528269, 1.48
577.904375, 1.49
580.280481, 1.5
582.656587, 1.51
585.032693, 1.52
587.408799, 1.53
589.784905, 1.54
592.161011, 1.55
594.537117, 1.56
596.913223, 1.57
599.289329, 1.58
601.665435, 1.59
604.041541, 1.6
606.417647, 1.61
608.793754, 1.62
611.16986, 1.63
613.545966, 1.64
615.922072, 1.65
618.298178, 1.66
620.674284, 1.67
623.05039, 1.68
625.426496, 1.69
627.802602, 1.7
630.178708, 1.71
632.554814, 1.72
634.93092, 1.73
637.307026, 1.74
639.683132, 1.75
642.059238, 1.76
644.435344, 1.77
646.81145, 1.78
649.187556, 1.79
651.563662, 1.8
653.939769, 1.81
656.315875, 1.82
658.691981, 1.83
661.068087, 1.84
663.444193, 1.85
665.820299, 1.86
668.196405, 1.87
670.572511, 1.88
672.948617, 1.89
675.324723, 1.9
677.700829, 1.91
680.076935, 1.92
682.453041, 1.93
684.829147, 1.94
687.205253, 1.95
689.581359, 1.96
691.957465, 1.97
694.333571, 1.98
696.709677, 1.99
699.085784, 2
701.46189, 2.01
703.837996, 2.02
706.214102, 2.03
708.590208, 2.04
710.966314, 2.05
713.34242, 2.06
715.718526, 2.07
718.094632, 2.08
720.470738, 2.09
722.846844, 2.1
725.22295, 2.11
727.599056, 2.12
729.975162, 2.13
732.351268, 2.14
734.727374, 2.15
737.10348, 2.16
739.479586, 2.17
741.855693, 2.18
744.231799, 2.19
746.607905, 2.2
748.984011, 2.21
751.360117, 2.22
753.736223, 2.23
756.112329, 2.24
758.488435, 2.25
760.864541, 2.26
763.240647, 2.27
765.616753, 2.28
767.992859, 2.29
770.368965, 2.3
772.745071, 2.31
775.121177, 2.32
777.497283, 2.33
779.873389, 2.34
782.249495, 2.35
784.625601, 2.36
787.001708, 2.37
789.377814, 2.38
791.75392, 2.39
794.130026, 2.4
796.506132, 2.41
798.882238, 2.42
801.258344, 2.43
803.63445, 2.44
806.010556, 2.45
808.386662, 2.46
810.762768, 2.47
813.138874, 2.48
815.51498, 2.49
817.891086, 2.5
820.267192, 2.51
822.643298, 2.52
825.019404, 2.53
827.39551, 2.54
829.771616, 2.55
832.147723, 2.56
834.523829, 2.57
836.899935, 2.58
839.276041, 2.59
841.652147, 2.6
844.028253, 2.61
846.404359, 2.62
848.780465, 2.63
851.156571, 2.64
853.532677, 2.65
855.908783, 2.66
858.284889, 2.67
860.660995, 2.68
863.037101, 2.69
865.413207, 2.7
867.789313, 2.71
870.165419, 2.72
872.541525, 2.73
874.917631, 2.74
877.293738, 2.75
879.669844, 2.76
882.04595, 2.77
884.422056, 2.78
886.798162, 2.79
889.174268, 2.8
891.550374, 2.81
893.92648, 2.82
896.302586, 2.83
898.678692, 2.84
901.054798, 2.85
903.430904, 2.86
905.80701, 2.87
908.183116, 2.88
910.559222, 2.89
912.935328, 2.9
915.311434, 2.91
917.68754, 2.92
920.063646, 2.93
922.439753, 2.94
924.815859, 2.95
927.191965, 2.96
929.568071, 2.97
931.944177, 2.98
934.320283, 2.99
936.696389, 3

*MATERIAL, NAME=STEEL
*ELASTIC
210000., 0.3
*SOLID SECTION, ELSET=SHEET, MATERIAL=AL
*SOLID SECTION, ELSET=TOOL, MATERIAL=STEEL
*SURFACE INTERACTION, NAME=SI
*SURFACE BEHAVIOR, PRESSURE-OVERCLOSURE=LINEAR
1.4e+06, 0.01
*FRICTION
0.1, 1.4e+06
*CONTACT PAIR, INTERACTION=SI, TYPE=NODE TO SURFACE
SSLAVE, SMASTER
*STEP, NLGEOM, INC=100000
*STATIC
0.025, 1.0, 2.5e-06, 0.025
*BOUNDARY
NSHEET, 2, 2, 0.0
*BOUNDARY
CLAMP, 1, 1, 0.0
CLAMP, 3, 3, 0.0
*BOUNDARY
PUNCH, 1, 1, 0
PUNCH, 2, 2, 0
PUNCH, 3, 3, -4
*NODE PRINT, NSET=PUNCH, TOTALS=ONLY
RF
*NODE PRINT, NSET=NTOP
U
*EL PRINT, ELSET=SHEET
PEEQ
*END STEP
*STEP, NLGEOM, INC=100000
*STATIC
0.05, 1.0, 1e-7, 0.05
*MODEL CHANGE, TYPE=CONTACT PAIR, REMOVE
SSLAVE, SMASTER
*BOUNDARY
NSHEET, 2, 2, 0.0
*BOUNDARY
CLAMP, 1, 1, 0.0
CLAMP, 3, 3, 0.0
*BOUNDARY
PUNCH, 1, 1, 0
PUNCH, 2, 2, 0
PUNCH, 3, 3, -4
*NODE PRINT, NSET=PUNCH, TOTALS=ONLY
RF
*NODE PRINT, NSET=NTOP
U
*EL PRINT, ELSET=SHEET
PEEQ
*END STEP
*STEP, NLGEOM, INC=100000
*STATIC
0.05, 1.0, 1e-6, 0.05
*BOUNDARY, OP=NEW
NSHEET, 2, 2, 0.0
PUNCH, 1, 1, 0
PUNCH, 2, 2, 0
PUNCH, 3, 3, -4
SUPA, 1, 1, 0.0
SUPA, 3, 3, 0.0
SUPB, 3, 3, 0.0
*NODE PRINT, NSET=PUNCH, TOTALS=ONLY
RF
*NODE PRINT, NSET=NTOP
U
*EL PRINT, ELSET=SHEET
PEEQ
*END STEP
