*HEADING
strip reference
*NODE, NSET=NSHEET
1, -20, 0, -1
2, -19.75, 0, -1
3, -19.75, 0.25, -1
4, -20, 0.25, -1
5, -20, 0, -0.875
6, -19.75, 0, -0.875
7, -19.75, 0.25, -0.875
8, -20, 0.25, -0.875
9, -19.875, 0, -1
10, -19.75, 0.125, -1
11, -19.875, 0.25, -1
12, -20, 0.125, -1
13, -19.875, 0, -0.875
14, -19.75, 0.125, -0.875
15, -19.875, 0.25, -0.875
16, -20, 0.125, -0.875
17, -20, 0, -0.9375
18, -19.75, 0, -0.9375
19, -19.75, 0.25, -0.9375
20, -20, 0.25, -0.9375
21, -19.5, 0, -1
22, -19.5, 0.25, -1
23, -19.5, 0, -0.875
24, -19.5, 0.25, -0.875
25, -19.625, 0, -1
26, -19.5, 0.125, -1
27, -19.625, 0.25, -1
28, -19.625, 0, -0.875
29, -19.5, 0.125, -0.875
30, -19.625, 0.25, -0.875
31, -19.5, 0, -0.9375
32, -19.5, 0.25, -0.9375
33, -19.25, 0, -1
34, -19.25, 0.25, -1
35, -19.25, 0, -0.875
36, -19.25, 0.25, -0.875
37, -19.375, 0, -1
38, -19.25, 0.125, -1
39, -19.375, 0.25, -1
40, -19.375, 0, -0.875
41, -19.25, 0.125, -0.875
42, -19.375, 0.25, -0.875
43, -19.25, 0, -0.9375
44, -19.25, 0.25, -0.9375
45, -19, 0, -1
46, -19, 0.25, -1
47, -19, 0, -0.875
48, -19, 0.25, -0.875
49, -19.125, 0, -1
50, -19, 0.125, -1
51, -19.125, 0.25, -1
52, -19.125, 0, -0.875
53, -19, 0.125, -0.875
54, -19.125, 0.25, -0.875
55, -19, 0, -0.9375
56, -19, 0.25, -0.9375
57, -18.75, 0, -1
58, -18.75, 0.25, -1
59, -18.75, 0, -0.875
60, -18.75, 0.25, -0.875
61, -18.875, 0, -1
62, -18.75, 0.125, -1
63, -18.875, 0.25, -1
64, -18.875, 0, -0.875
65, -18.75, 0.125, -0.875
66, -18.875, 0.25, -0.875
67, -18.75, 0, -0.9375
68, -18.75, 0.25, -0.9375
69, -18.5, 0, -1
70, -18.5, 0.25, -1
71, -18.5, 0, -0.875
72, -18.5, 0.25, -0.875
73, -18.625, 0, -1
74, -18.5, 0.125, -1
75, -18.625, 0.25, -1
76, -18.625, 0, -0.875
77, -18.5, 0.125, -0.875
78, -18.625, 0.25, -0.875
79, -18.5, 0, -0.9375
80, -18.5, 0.25, -0.9375
81, -18.25, 0, -1
82, -18.25, 0.25, -1
83, -18.25, 0, -0.875
84, -18.25, 0.25, -0.875
85, -18.375, 0, -1
86, -18.25, 0.125, -1
87, -18.375, 0.25, -1
88, -18.375, 0, -0.875
89, -18.25, 0.125, -0.875
90, -18.375, 0.25, -0.875
91, -18.25, 0, -0.9375
92, -18.25, 0.25, -0.9375
93, -18, 0, -1
94, -18, 0.25, -1
95, -18, 0, -0.875
96, -18, 0.25, -0.875
97, -18.125, 0, -1
98, -18, 0.125, -1
99, -18.125, 0.25, -1
100, -18.125, 0, -0.875
101, -18, 0.125, -0.875
102, -18.125, 0.25, -0.875
103, -18, 0, -0.9375
104, -18, 0.25, -0.9375
105, -17.75, 0, -1
106, -17.75, 0.25, -1
107, -17.75, 0, -0.875
108, -17.75, 0.25, -0.875
109, -17.875, 0, -1
110, -17.75, 0.125, -1
111, -17.875, 0.25, -1
112, -17.875, 0, -0.875
113, -17.75, 0.125, -0.875
114, -17.875, 0.25, -0.875
115, -17.75, 0, -0.9375
116, -17.75, 0.25, -0.9375
117, -17.5, 0, -1
118, -17.5, 0.25, -1
119, -17.5, 0, -0.875
120, -17.5, 0.25, -0.875
121, -17.625, 0, -1
122, -17.5, 0.125, -1
123, -17.625, 0.25, -1
124, -17.625, 0, -0.875
125, -17.5, 0.125, -0.875
126, -17.625, 0.25, -0.875
127, -17.5, 0, -0.9375
128, -17.5, 0.25, -0.9375
129, -17.25, 0, -1
130, -17.25, 0.25, -1
131, -17.25, 0, -0.875
132, -17.25, 0.25, -0.875
133, -17.375, 0, -1
134, -17.25, 0.125, -1
135, -17.375, 0.25, -1
136, -17.375, 0, -0.875
137, -17.25, 0.125, -0.875
138, -17.375, 0.25, -0.875
139, -17.25, 0, -0.9375
140, -17.25, 0.25, -0.9375
141, -17, 0, -1
142, -17, 0.25, -1
143, -17, 0, -0.875
144, -17, 0.25, -0.875
145, -17.125, 0, -1
146, -17, 0.125, -1
147, -17.125, 0.25, -1
148, -17.125, 0, -0.875
149, -17, 0.125, -0.875
150, -17.125, 0.25, -0.875
151, -17, 0, -0.9375
152, -17, 0.25, -0.9375
153, -16.75, 0, -1
154, -16.75, 0.25, -1
155, -16.75, 0, -0.875
156, -16.75, 0.25, -0.875
157, -16.875, 0, -1
158, -16.75, 0.125, -1
159, -16.875, 0.25, -1
160, -16.875, 0, -0.875
161, -16.75, 0.125, -0.875
162, -16.875, 0.25, -0.875
163, -16.75, 0, -0.9375
164, -16.75, 0.25, -0.9375
165, -16.5, 0, -1
166, -16.5, 0.25, -1
167, -16.5, 0, -0.875
168, -16.5, 0.25, -0.875
169, -16.625, 0, -1
170, -16.5, 0.125, -1
171, -16.625, 0.25, -1
172, -16.625, 0, -0.875
173, -16.5, 0.125, -0.875
174, -16.625, 0.25, -0.875
175, -16.5, 0, -0.9375
176, -16.5, 0.25, -0.9375
177, -16.25, 0, -1
178, -16.25, 0.25, -1
179, -16.25, 0, -0.875
180, -16.25, 0.25, -0.875
181, -16.375, 0, -1
182, -16.25, 0.125, -1
183, -16.375, 0.25, -1
184, -16.375, 0, -0.875
185, -16.25, 0.125, -0.875
186, -16.375, 0.25, -0.875
187, -16.25, 0, -0.9375
188, -16.25, 0.25, -0.9375
189, -16, 0, -1
190, -16, 0.25, -1
191, -16, 0, -0.875
192, -16, 0.25, -0.875
193, -16.125, 0, -1
194, -16, 0.125, -1
195, -16.125, 0.25, -1
196, -16.125, 0, -0.875
197, -16, 0.125, -0.875
198, -16.125, 0.25, -0.875
199, -16, 0, -0.9375
200, -16, 0.25, -0.9375
201, -15.75, 0, -1
202, -15.75, 0.25, -1
203, -15.75, 0, -0.875
204, -15.75, 0.25, -0.875
205, -15.875, 0, -1
206, -15.75, 0.125, -1
207, -15.875, 0.25, -1
208, -15.875, 0, -0.875
209, -15.75, 0.125, -0.875
210, -15.875, 0.25, -0.875
211, -15.75, 0, -0.9375
212, -15.75, 0.25, -0.9375
213, -15.5, 0, -1
214, -15.5, 0.25, -1
215, -15.5, 0, -0.875
216, -15.5, 0.25, -0.875
217, -15.625, 0, -1
218, -15.5, 0.125, -1
219, -15.625, 0.25, -1
220, -15.625, 0, -0.875
221, -15.5, 0.125, -0.875
222, -15.625, 0.25, -0.875
223, -15.5, 0, -0.9375
224, -15.5, 0.25, -0.9375
225, -15.25, 0, -1
226, -15.25, 0.25, -1
227, -15.25, 0, -0.875
228, -15.25, 0.25, -0.875
229, -15.375, 0, -1
230, -15.25, 0.125, -1
231, -15.375, 0.25, -1
232, -15.375, 0, -0.875
233, -15.25, 0.125, -0.875
234, -15.375, 0.25, -0.875
235, -15.25, 0, -0.9375
236, -15.25, 0.25, -0.9375
237, -15, 0, -1
238, -15, 0.25, -1
239, -15, 0, -0.875
240, -15, 0.25, -0.875
241, -15.125, 0, -1
242, -15, 0.125, -1
243, -15.125, 0.25, -1
244, -15.125, 0, -0.875
245, -15, 0.125, -0.875
246, -15.125, 0.25, -0.875
247, -15, 0, -0.9375
248, -15, 0.25, -0.9375
249, -14.75, 0, -1
250, -14.75, 0.25, -1
251, -14.75, 0, -0.875
252, -14.75, 0.25, -0.875
253, -14.875, 0, -1
254, -14.75, 0.125, -1
255, -14.875, 0.25, -1
256, -14.875, 0, -0.875
257, -14.75, 0.125, -0.875
258, -14.875, 0.25, -0.875
259, -14.75, 0, -0.9375
260, -14.75, 0.25, -0.9375
261, -14.5, 0, -1
262, -14.5, 0.25, -1
263, -14.5, 0, -0.875
264, -14.5, 0.25, -0.875
265, -14.625, 0, -1
266, -14.5, 0.125, -1
267, -14.625, 0.25, -1
268, -14.625, 0, -0.875
269, -14.5, 0.125, -0.875
270, -14.625, 0.25, -0.875
271, -14.5, 0, -0.9375
272, -14.5, 0.25, -0.9375
273, -14.25, 0, -1
274, -14.25, 0.25, -1
275, -14.25, 0, -0.875
276, -14.25, 0.25, -0.875
277, -14.375, 0, -1
278, -14.25, 0.125, -1
279, -14.375, 0.25, -1
280, -14.375, 0, -0.875
281, -14.25, 0.125, -0.875
282, -14.375, 0.25, -0.875
283, -14.25, 0, -0.9375
284, -14.25, 0.25, -0.9375
285, -14, 0, -1
286, -14, 0.25, -1
287, -14, 0, -0.875
288, -14, 0.25, -0.875
289, -14.125, 0, -1
290, -14, 0.125, -1
291, -14.125, 0.25, -1
292, -14.125, 0, -0.875
293, -14, 0.125, -0.875
294, -14.125, 0.25, -0.875
295, -14, 0, -0.9375
296, -14, 0.25, -0.9375
297, -13.75, 0, -1
298, -13.75, 0.25, -1
299, -13.75, 0, -0.875
300, -13.75, 0.25, -0.875
301, -13.875, 0, -1
302, -13.75, 0.125, -1
303, -13.875, 0.25, -1
304, -13.875, 0, -0.875
305, -13.75, 0.125, -0.875
306, -13.875, 0.25, -0.875
307, -13.75, 0, -0.9375
308, -13.75, 0.25, -0.9375
309, -13.5, 0, -1
310, -13.5, 0.25, -1
311, -13.5, 0, -0.875
312, -13.5, 0.25, -0.875
313, -13.625, 0, -1
314, -13.5, 0.125, -1
315, -13.625, 0.25, -1
316, -13.625, 0, -0.875
317, -13.5, 0.125, -0.875
318, -13.625, 0.25, -0.875
319, -13.5, 0, -0.9375
320, -13.5, 0.25, -0.9375
321, -13.25, 0, -1
322, -13.25, 0.25, -1
323, -13.25, 0, -0.875
324, -13.25, 0.25, -0.875
325, -13.375, 0, -1
326, -13.25, 0.125, -1
327, -13.375, 0.25, -1
328, -13.375, 0, -0.875
329, -13.25, 0.125, -0.875
330, -13.375, 0.25, -0.875
331, -13.25, 0, -0.9375
332, -13.25, 0.25, -0.9375
333, -13, 0, -1
334, -13, 0.25, -1
335, -13, 0, -0.875
336, -13, 0.25, -0.875
337, -13.125, 0, -1
338, -13, 0.125, -1
339, -13.125, 0.25, -1
340, -13.125, 0, -0.875
341, -13, 0.125, -0.875
342, -13.125, 0.25, -0.875
343, -13, 0, -0.9375
344, -13, 0.25, -0.9375
345, -12.75, 0, -1
346, -12.75, 0.25, -1
347, -12.75, 0, -0.875
348, -12.75, 0.25, -0.875
349, -12.875, 0, -1
350, -12.75, 0.125, -1
351, -12.875, 0.25, -1
352, -12.875, 0, -0.875
353, -12.75, 0.125, -0.875
354, -12.875, 0.25, -0.875
355, -12.75, 0, -0.9375
356, -12.75, 0.25, -0.9375
357, -12.5, 0, -1
358, -12.5, 0.25, -1
359, -12.5, 0, -0.875
360, -12.5, 0.25, -0.875
361, -12.625, 0, -1
362, -12.5, 0.125, -1
363, -12.625, 0.25, -1
364, -12.625, 0, -0.875
365, -12.5, 0.125, -0.875
366, -12.625, 0.25, -0.875
367, -12.5, 0, -0.9375
368, -12.5, 0.25, -0.9375
369, -12.25, 0, -1
370, -12.25, 0.25, -1
371, -12.25, 0, -0.875
372, -12.25, 0.25, -0.875
373, -12.375, 0, -1
374, -12.25, 0.125, -1
375, -12.375, 0.25, -1
376, -12.375, 0, -0.875
377, -12.25, 0.125, -0.875
378, -12.375, 0.25, -0.875
379, -12.25, 0, -0.9375
380, -12.25, 0.25, -0.9375
381, -12, 0, -1
382, -12, 0.25, -1
383, -12, 0, -0.875
384, -12, 0.25, -0.875
385, -12.125, 0, -1
386, -12, 0.125, -1
387, -12.125, 0.25, -1
388, -12.125, 0, -0.875
389, -12, 0.125, -0.875
390, -12.125, 0.25, -0.875
391, -12, 0, -0.9375
392, -12, 0.25, -0.9375
393, -11.75, 0, -1
394, -11.75, 0.25, -1
395, -11.75, 0, -0.875
396, -11.75, 0.25, -0.875
397, -11.875, 0, -1
398, -11.75, 0.125, -1
399, -11.875, 0.25, -1
400, -11.875, 0, -0.875
401, -11.75, 0.125, -0.875
402, -11.875, 0.25, -0.875
403, -11.75, 0, -0.9375
404, -11.75, 0.25, -0.9375
405, -11.5, 0, -1
406, -11.5, 0.25, -1
407, -11.5, 0, -0.875
408, -11.5, 0.25, -0.875
409, -11.625, 0, -1
410, -11.5, 0.125, -1
411, -11.625, 0.25, -1
412, -11.625, 0, -0.875
413, -11.5, 0.125, -0.875
414, -11.625, 0.25, -0.875
415, -11.5, 0, -0.9375
416, -11.5, 0.25, -0.9375
417, -11.25, 0, -1
418, -11.25, 0.25, -1
419, -11.25, 0, -0.875
420, -11.25, 0.25, -0.875
421, -11.375, 0, -1
422, -11.25, 0.125, -1
423, -11.375, 0.25, -1
424, -11.375, 0, -0.875
425, -11.25, 0.125, -0.875
426, -11.375, 0.25, -0.875
427, -11.25, 0, -0.9375
428, -11.25, 0.25, -0.9375
429, -11, 0, -1
430, -11, 0.25, -1
431, -11, 0, -0.875
432, -11, 0.25, -0.875
433, -11.125, 0, -1
434, -11, 0.125, -1
435, -11.125, 0.25, -1
436, -11.125, 0, -0.875
437, -11, 0.125, -0.875
438, -11.125, 0.25, -0.875
439, -11, 0, -0.9375
440, -11, 0.25, -0.9375
441, -10.75, 0, -1
442, -10.75, 0.25, -1
443, -10.75, 0, -0.875
444, -10.75, 0.25, -0.875
445, -10.875, 0, -1
446, -10.75, 0.125, -1
447, -10.875, 0.25, -1
448, -10.875, 0, -0.875
449, -10.75, 0.125, -0.875
450, -10.875, 0.25, -0.875
451, -10.75, 0, -0.9375
452, -10.75, 0.25, -0.9375
453, -10.5, 0, -1
454, -10.5, 0.25, -1
455, -10.5, 0, -0.875
456, -10.5, 0.25, -0.875
457, -10.625, 0, -1
458, -10.5, 0.125, -1
459, -10.625, 0.25, -1
460, -10.625, 0, -0.875
461, -10.5, 0.125, -0.875
462, -10.625, 0.25, -0.875
463, -10.5, 0, -0.9375
464, -10.5, 0.25, -0.9375
465, -10.25, 0, -1
466, -10.25, 0.25, -1
467, -10.25, 0, -0.875
468, -10.25, 0.25, -0.875
469, -10.375, 0, -1
470, -10.25, 0.125, -1
471, -10.375, 0.25, -1
472, -10.375, 0, -0.875
473, -10.25, 0.125, -0.875
474, -10.375, 0.25, -0.875
475, -10.25, 0, -0.9375
476, -10.25, 0.25, -0.9375
477, -10, 0, -1
478, -10, 0.25, -1
479, -10, 0, -0.875
480, -10, 0.25, -0.875
481, -10.125, 0, -1
482, -10, 0.125, -1
483, -10.125, 0.25, -1
484, -10.125, 0, -0.875
485, -10, 0.125, -0.875
486, -10.125, 0.25, -0.875
487, -10, 0, -0.9375
488, -10, 0.25, -0.9375
489, -9.75, 0, -1
490, -9.75, 0.25, -1
491, -9.75, 0, -0.875
492, -9.75, 0.25, -0.875
493, -9.875, 0, -1
494, -9.75, 0.125, -1
495, -9.875, 0.25, -1
496, -9.875, 0, -0.875
497, -9.75, 0.125, -0.875
498, -9.875, 0.25, -0.875
499, -9.75, 0, -0.9375
500, -9.75, 0.25, -0.9375
501, -9.5, 0, -1
502, -9.5, 0.25, -1
503, -9.5, 0, -0.875
504, -9.5, 0.25, -0.875
505, -9.625, 0, -1
506, -9.5, 0.125, -1
507, -9.625, 0.25, -1
508, -9.625, 0, -0.875
509, -9.5, 0.125, -0.875
510, -9.625, 0.25, -0.875
511, -9.5, 0, -0.9375
512, -9.5, 0.25, -0.9375
513, -9.25, 0, -1
514, -9.25, 0.25, -1
515, -9.25, 0, -0.875
516, -9.25, 0.25, -0.875
517, -9.375, 0, -1
518, -9.25, 0.125, -1
519, -9.375, 0.25, -1
520, -9.375, 0, -0.875
521, -9.25, 0.125, -0.875
522, -9.375, 0.25, -0.875
523, -9.25, 0, -0.9375
524, -9.25, 0.25, -0.9375
525, -9, 0, -1
526, -9, 0.25, -1
527, -9, 0, -0.875
528, -9, 0.25, -0.875
529, -9.125, 0, -1
530, -9, 0.125, -1
531, -9.125, 0.25, -1
532, -9.125, 0, -0.875
533, -9, 0.125, -0.875
534, -9.125, 0.25, -0.875
535, -9, 0, -0.9375
536, -9, 0.25, -0.9375
537, -8.75, 0, -1
538, -8.75, 0.25, -1
539, -8.75, 0, -0.875
540, -8.75, 0.25, -0.875
541, -8.875, 0, -1
542, -8.75, 0.125, -1
543, -8.875, 0.25, -1
544, -8.875, 0, -0.875
545, -8.75, 0.125, -0.875
546, -8.875, 0.25, -0.875
547, -8.75, 0, -0.9375
548, -8.75, 0.25, -0.9375
549, -8.5, 0, -1
550, -8.5, 0.25, -1
551, -8.5, 0, -0.875
552, -8.5, 0.25, -0.875
553, -8.625, 0, -1
554, -8.5, 0.125, -1
555, -8.625, 0.25, -1
556, -8.625, 0, -0.875
557, -8.5, 0.125, -0.875
558, -8.625, 0.25, -0.875
559, -8.5, 0, -0.9375
560, -8.5, 0.25, -0.9375
561, -8.25, 0, -1
562, -8.25, 0.25, -1
563, -8.25, 0, -0.875
564, -8.25, 0.25, -0.875
565, -8.375, 0, -1
566, -8.25, 0.125, -1
567, -8.375, 0.25, -1
568, -8.375, 0, -0.875
569, -8.25, 0.125, -0.875
570, -8.375, 0.25, -0.875
571, -8.25, 0, -0.9375
572, -8.25, 0.25, -0.9375
573, -8, 0, -1
574, -8, 0.25, -1
575, -8, 0, -0.875
576, -8, 0.25, -0.875
577, -8.125, 0, -1
578, -8, 0.125, -1
579, -8.125, 0.25, -1
580, -8.125, 0, -0.875
581, -8, 0.125, -0.875
582, -8.125, 0.25, -0.875
583, -8, 0, -0.9375
584, -8, 0.25, -0.9375
585, -7.75, 0, -1
586, -7.75, 0.25, -1
587, -7.75, 0, -0.875
588, -7.75, 0.25, -0.875
589, -7.875, 0, -1
590, -7.75, 0.125, -1
591, -7.875, 0.25, -1
592, -7.875, 0, -0.875
593, -7.75, 0.125, -0.875
594, -7.875, 0.25, -0.875
595, -7.75, 0, -0.9375
596, -7.75, 0.25, -0.9375
597, -7.5, 0, -1
598, -7.5, 0.25, -1
599, -7.5, 0, -0.875
600, -7.5, 0.25, -0.875
601, -7.625, 0, -1
602, -7.5, 0.125, -1
603, -7.625, 0.25, -1
604, -7.625, 0, -0.875
605, -7.5, 0.125, -0.875
606, -7.625, 0.25, -0.875
607, -7.5, 0, -0.9375
608, -7.5, 0.25, -0.9375
609, -7.25, 0, -1
610, -7.25, 0.25, -1
611, -7.25, 0, -0.875
612, -7.25, 0.25, -0.875
613, -7.375, 0, -1
614, -7.25, 0.125, -1
615, -7.375, 0.25, -1
616, -7.375, 0, -0.875
617, -7.25, 0.125, -0.875
618, -7.375, 0.25, -0.875
619, -7.25, 0, -0.9375
620, -7.25, 0.25, -0.9375
621, -7, 0, -1
622, -7, 0.25, -1
623, -7, 0, -0.875
624, -7, 0.25, -0.875
625, -7.125, 0, -1
626, -7, 0.125, -1
627, -7.125, 0.25, -1
628, -7.125, 0, -0.875
629, -7, 0.125, -0.875
630, -7.125, 0.25, -0.875
631, -7, 0, -0.9375
632, -7, 0.25, -0.9375
633, -6.75, 0, -1
634, -6.75, 0.25, -1
635, -6.75, 0, -0.875
636, -6.75, 0.25, -0.875
637, -6.875, 0, -1
638, -6.75, 0.125, -1
639, -6.875, 0.25, -1
640, -6.875, 0, -0.875
641, -6.75, 0.125, -0.875
642, -6.875, 0.25, -0.875
643, -6.75, 0, -0.9375
644, -6.75, 0.25, -0.9375
645, -6.5, 0, -1
646, -6.5, 0.25, -1
647, -6.5, 0, -0.875
648, -6.5, 0.25, -0.875
649, -6.625, 0, -1
650, -6.5, 0.125, -1
651, -6.625, 0.25, -1
652, -6.625, 0, -0.875
653, -6.5, 0.125, -0.875
654, -6.625, 0.25, -0.875
655, -6.5, 0, -0.9375
656, -6.5, 0.25, -0.9375
657, -6.25, 0, -1
658, -6.25, 0.25, -1
659, -6.25, 0, -0.875
660, -6.25, 0.25, -0.875
661, -6.375, 0, -1
662, -6.25, 0.125, -1
663, -6.375, 0.25, -1
664, -6.375, 0, -0.875
665, -6.25, 0.125, -0.875
666, -6.375, 0.25, -0.875
667, -6.25, 0, -0.9375
668, -6.25, 0.25, -0.9375
669, -6, 0, -1
670, -6, 0.25, -1
671, -6, 0, -0.875
672, -6, 0.25, -0.875
673, -6.125, 0, -1
674, -6, 0.125, -1
675, -6.125, 0.25, -1
676, -6.125, 0, -0.875
677, -6, 0.125, -0.875
678, -6.125, 0.25, -0.875
679, -6, 0, -0.9375
680, -6, 0.25, -0.9375
681, -5.75, 0, -1
682, -5.75, 0.25, -1
683, -5.75, 0, -0.875
684, -5.75, 0.25, -0.875
685, -5.875, 0, -1
686, -5.75, 0.125, -1
687, -5.875, 0.25, -1
688, -5.875, 0, -0.875
689, -5.75, 0.125, -0.875
690, -5.875, 0.25, -0.875
691, -5.75, 0, -0.9375
692, -5.75, 0.25, -0.9375
693, -5.5, 0, -1
694, -5.5, 0.25, -1
695, -5.5, 0, -0.875
696, -5.5, 0.25, -0.875
697, -5.625, 0, -1
698, -5.5, 0.125, -1
699, -5.625, 0.25, -1
700, -5.625, 0, -0.875
701, -5.5, 0.125, -0.875
702, -5.625, 0.25, -0.875
703, -5.5, 0, -0.9375
704, -5.5, 0.25, -0.9375
705, -5.25, 0, -1
706, -5.25, 0.25, -1
707, -5.25, 0, -0.875
708, -5.25, 0.25, -0.875
709, -5.375, 0, -1
710, -5.25, 0.125, -1
711, -5.375, 0.25, -1
712, -5.375, 0, -0.875
713, -5.25, 0.125, -0.875
714, -5.375, 0.25, -0.875
715, -5.25, 0, -0.9375
716, -5.25, 0.25, -0.9375
717, -5, 0, -1
718, -5, 0.25, -1
719, -5, 0, -0.875
720, -5, 0.25, -0.875
721, -5.125, 0, -1
722, -5, 0.125, -1
723, -5.125, 0.25, -1
724, -5.125, 0, -0.875
725, -5, 0.125, -0.875
726, -5.125, 0.25, -0.875
727, -5, 0, -0.9375
728, -5, 0.25, -0.9375
729, -4.75, 0, -1
730, -4.75, 0.25, -1
731, -4.75, 0, -0.875
732, -4.75, 0.25, -0.875
733, -4.875, 0, -1
734, -4.75, 0.125, -1
735, -4.875, 0.25, -1
736, -4.875, 0, -0.875
737, -4.75, 0.125, -0.875
738, -4.875, 0.25, -0.875
739, -4.75, 0, -0.9375
740, -4.75, 0.25, -0.9375
741, -4.5, 0, -1
742, -4.5, 0.25, -1
743, -4.5, 0, -0.875
744, -4.5, 0.25, -0.875
745, -4.625, 0, -1
746, -4.5, 0.125, -1
747, -4.625, 0.25, -1
748, -4.625, 0, -0.875
749, -4.5, 0.125, -0.875
750, -4.625, 0.25, -0.875
751, -4.5, 0, -0.9375
752, -4.5, 0.25, -0.9375
753, -4.25, 0, -1
754, -4.25, 0.25, -1
755, -4.25, 0, -0.875
756, -4.25, 0.25, -0.875
757, -4.375, 0, -1
758, -4.25, 0.125, -1
759, -4.375, 0.25, -1
760, -4.375, 0, -0.875
761, -4.25, 0.125, -0.875
762, -4.375, 0.25, -0.875
763, -4.25, 0, -0.9375
764, -4.25, 0.25, -0.9375
765, -4, 0, -1
766, -4, 0.25, -1
767, -4, 0, -0.875
768, -4, 0.25, -0.875
769, -4.125, 0, -1
770, -4, 0.125, -1
771, -4.125, 0.25, -1
772, -4.125, 0, -0.875
773, -4, 0.125, -0.875
774, -4.125, 0.25, -0.875
775, -4, 0, -0.9375
776, -4, 0.25, -0.9375
777, -3.75, 0, -1
778, -3.75, 0.25, -1
779, -3.75, 0, -0.875
780, -3.75, 0.25, -0.875
781, -3.875, 0, -1
782, -3.75, 0.125, -1
783, -3.875, 0.25, -1
784, -3.875, 0, -0.875
785, -3.75, 0.125, -0.875
786, -3.875, 0.25, -0.875
787, -3.75, 0, -0.9375
788, -3.75, 0.25, -0.9375
789, -3.5, 0, -1
790, -3.5, 0.25, -1
791, -3.5, 0, -0.875
792, -3.5, 0.25, -0.875
793, -3.625, 0, -1
794, -3.5, 0.125, -1
795, -3.625, 0.25, -1
796, -3.625, 0, -0.875
797, -3.5, 0.125, -0.875
798, -3.625, 0.25, -0.875
799, -3.5, 0, -0.9375
800, -3.5, 0.25, -0.9375
801, -3.25, 0, -1
802, -3.25, 0.25, -1
803, -3.25, 0, -0.875
804, -3.25, 0.25, -0.875
805, -3.375, 0, -1
806, -3.25, 0.125, -1
807, -3.375, 0.25, -1
808, -3.375, 0, -0.875
809, -3.25, 0.125, -0.875
810, -3.375, 0.25, -0.875
811, -3.25, 0, -0.9375
812, -3.25, 0.25, -0.9375
813, -3, 0, -1
814, -3, 0.25, -1
815, -3, 0, -0.875
816, -3, 0.25, -0.875
817, -3.125, 0, -1
818, -3, 0.125, -1
819, -3.125, 0.25, -1
820, -3.125, 0, -0.875
821, -3, 0.125, -0.875
822, -3.125, 0.25, -0.875
823, -3, 0, -0.9375
824, -3, 0.25, -0.9375
825, -2.75, 0, -1
826, -2.75, 0.25, -1
827, -2.75, 0, -0.875
828, -2.75, 0.25, -0.875
829, -2.875, 0, -1
830, -2.75, 0.125, -1
831, -2.875, 0.25, -1
832, -2.875, 0, -0.875
833, -2.75, 0.125, -0.875
834, -2.875, 0.25, -0.875
835, -2.75, 0, -0.9375
836, -2.75, 0.25, -0.9375
837, -2.5, 0, -1
838, -2.5, 0.25, -1
839, -2.5, 0, -0.875
840, -2.5, 0.25, -0.875
841, -2.625, 0, -1
842, -2.5, 0.125, -1
843, -2.625, 0.25, -1
844, -2.625, 0, -0.875
845, -2.5, 0.125, -0.875
846, -2.625, 0.25, -0.875
847, -2.5, 0, -0.9375
848, -2.5, 0.25, -0.9375
849, -2.25, 0, -1
850, -2.25, 0.25, -1
851, -2.25, 0, -0.875
852, -2.25, 0.25, -0.875
853, -2.375, 0, -1
854, -2.25, 0.125, -1
855, -2.375, 0.25, -1
856, -2.375, 0, -0.875
857, -2.25, 0.125, -0.875
858, -2.375, 0.25, -0.875
859, -2.25, 0, -0.9375
860, -2.25, 0.25, -0.9375
861, -2, 0, -1
862, -2, 0.25, -1
863, -2, 0, -0.875
864, -2, 0.25, -0.875
865, -2.125, 0, -1
866, -2, 0.125, -1
867, -2.125, 0.25, -1
868, -2.125, 0, -0.875
869, -2, 0.125, -0.875
870, -2.125, 0.25, -0.875
871, -2, 0, -0.9375
872, -2, 0.25, -0.9375
873, -1.75, 0, -1
874, -1.75, 0.25, -1
875, -1.75, 0, -0.875
876, -1.75, 0.25, -0.875
877, -1.875, 0, -1
878, -1.75, 0.125, -1
879, -1.875, 0.25, -1
880, -1.875, 0, -0.875
881, -1.75, 0.125, -0.875
882, -1.875, 0.25, -0.875
883, -1.75, 0, -0.9375
884, -1.75, 0.25, -0.9375
885, -1.5, 0, -1
886, -1.5, 0.25, -1
887, -1.5, 0, -0.875
888, -1.5, 0.25, -0.875
889, -1.625, 0, -1
890, -1.5, 0.125, -1
891, -1.625, 0.25, -1
892, -1.625, 0, -0.875
893, -1.5, 0.125, -0.875
894, -1.625, 0.25, -0.875
895, -1.5, 0, -0.9375
896, -1.5, 0.25, -0.9375
897, -1.25, 0, -1
898, -1.25, 0.25, -1
899, -1.25, 0, -0.875
900, -1.25, 0.25, -0.875
901, -1.375, 0, -1
902, -1.25, 0.125, -1
903, -1.375, 0.25, -1
904, -1.375, 0, -0.875
905, -1.25, 0.125, -0.875
906, -1.375, 0.25, -0.875
907, -1.25, 0, -0.9375
908, -1.25, 0.25, -0.9375
909, -1, 0, -1
910, -1, 0.25, -1
911, -1, 0, -0.875
912, -1, 0.25, -0.875
913, -1.125, 0, -1
914, -1, 0.125, -1
915, -1.125, 0.25, -1
916, -1.125, 0, -0.875
917, -1, 0.125, -0.875
918, -1.125, 0.25, -0.875
919, -1, 0, -0.9375
920, -1, 0.25, -0.9375
921, -0.75, 0, -1
922, -0.75, 0.25, -1
923, -0.75, 0, -0.875
924, -0.75, 0.25, -0.875
925, -0.875, 0, -1
926, -0.75, 0.125, -1
927, -0.875, 0.25, -1
928, -0.875, 0, -0.875
929, -0.75, 0.125, -0.875
930, -0.875, 0.25, -0.875
931, -0.75, 0, -0.9375
932, -0.75, 0.25, -0.9375
933, -0.5, 0, -1
934, -0.5, 0.25, -1
935, -0.5, 0, -0.875
936, -0.5, 0.25, -0.875
937, -0.625, 0, -1
938, -0.5, 0.125, -1
939, -0.625, 0.25, -1
940, -0.625, 0, -0.875
941, -0.5, 0.125, -0.875
942, -0.625, 0.25, -0.875
943, -0.5, 0, -0.9375
944, -0.5, 0.25, -0.9375
945, -0.25, 0, -1
946, -0.25, 0.25, -1
947, -0.25, 0, -0.875
948, -0.25, 0.25, -0.875
949, -0.375, 0, -1
950, -0.25, 0.125, -1
951, -0.375, 0.25, -1
952, -0.375, 0, -0.875
953, -0.25, 0.125, -0.875
954, -0.375, 0.25, -0.875
955, -0.25, 0, -0.9375
956, -0.25, 0.25, -0.9375
957, 0, 0, -1
958, 0, 0.25, -1
959, 0, 0, -0.875
960, 0, 0.25, -0.875
961, -0.125, 0, -1
962, 0, 0.125, -1
963, -0.125, 0.25, -1
964, -0.125, 0, -0.875
965, 0, 0.125, -0.875
966, -0.125, 0.25, -0.875
967, 0, 0, -0.9375
968, 0, 0.25, -0.9375
969, 0.25, 0, -1
970, 0.25, 0.25, -1
971, 0.25, 0, -0.875
972, 0.25, 0.25, -0.875
973, 0.125, 0, -1
974, 0.25, 0.125, -1
975, 0.125, 0.25, -1
976, 0.125, 0, -0.875
977, 0.25, 0.125, -0.875
978, 0.125, 0.25, -0.875
979, 0.25, 0, -0.9375
980, 0.25, 0.25, -0.9375
981, 0.5, 0, -1
982, 0.5, 0.25, -1
983, 0.5, 0, -0.875
984, 0.5, 0.25, -0.875
985, 0.375, 0, -1
986, 0.5, 0.125, -1
987, 0.375, 0.25, -1
988, 0.375, 0, -0.875
989, 0.5, 0.125, -0.875
990, 0.375, 0.25, -0.875
991, 0.5, 0, -0.9375
992, 0.5, 0.25, -0.9375
993, 0.75, 0, -1
994, 0.75, 0.25, -1
995, 0.75, 0, -0.875
996, 0.75, 0.25, -0.875
997, 0.625, 0, -1
998, 0.75, 0.125, -1
999, 0.625, 0.25, -1
1000, 0.625, 0, -0.875
1001, 0.75, 0.125, -0.875
1002, 0.625, 0.25, -0.875
1003, 0.75, 0, -0.9375
1004, 0.75, 0.25, -0.9375
1005, 1, 0, -1
1006, 1, 0.25, -1
1007, 1, 0, -0.875
1008, 1, 0.25, -0.875
1009, 0.875, 0, -1
1010, 1, 0.125, -1
1011, 0.875, 0.25, -1
1012, 0.875, 0, -0.875
1013, 1, 0.125, -0.875
1014, 0.875, 0.25, -0.875
1015, 1, 0, -0.9375
1016, 1, 0.25, -0.9375
1017, 1.25, 0, -1
1018, 1.25, 0.25, -1
1019, 1.25, 0, -0.875
1020, 1.25, 0.25, -0.875
1021, 1.125, 0, -1
1022, 1.25, 0.125, -1
1023, 1.125, 0.25, -1
1024, 1.125, 0, -0.875
1025, 1.25, 0.125, -0.875
1026, 1.125, 0.25, -0.875
1027, 1.25, 0, -0.9375
1028, 1.25, 0.25, -0.9375
1029, 1.5, 0, -1
1030, 1.5, 0.25, -1
1031, 1.5, 0, -0.875
1032, 1.5, 0.25, -0.875
1033, 1.375, 0, -1
1034, 1.5, 0.125, -1
1035, 1.375, 0.25, -1
1036, 1.375, 0, -0.875
1037, 1.5, 0.125, -0.875
1038, 1.375, 0.25, -0.875
1039, 1.5, 0, -0.9375
1040, 1.5, 0.25, -0.9375
1041, 1.75, 0, -1
1042, 1.75, 0.25, -1
1043, 1.75, 0, -0.875
1044, 1.75, 0.25, -0.875
1045, 1.625, 0, -1
1046, 1.75, 0.125, -1
1047, 1.625, 0.25, -1
1048, 1.625, 0, -0.875
1049, 1.75, 0.125, -0.875
1050, 1.625, 0.25, -0.875
1051, 1.75, 0, -0.9375
1052, 1.75, 0.25, -0.9375
1053, 2, 0, -1
1054, 2, 0.25, -1
1055, 2, 0, -0.875
1056, 2, 0.25, -0.875
1057, 1.875, 0, -1
1058, 2, 0.125, -1
1059, 1.875, 0.25, -1
1060, 1.875, 0, -0.875
1061, 2, 0.125, -0.875
1062, 1.875, 0.25, -0.875
1063, 2, 0, -0.9375
1064, 2, 0.25, -0.9375
1065, 2.25, 0, -1
1066, 2.25, 0.25, -1
1067, 2.25, 0, -0.875
1068, 2.25, 0.25, -0.875
1069, 2.125, 0, -1
1070, 2.25, 0.125, -1
1071, 2.125, 0.25, -1
1072, 2.125, 0, -0.875
1073, 2.25, 0.125, -0.875
1074, 2.125, 0.25, -0.875
1075, 2.25, 0, -0.9375
1076, 2.25, 0.25, -0.9375
1077, 2.5, 0, -1
1078, 2.5, 0.25, -1
1079, 2.5, 0, -0.875
1080, 2.5, 0.25, -0.875
1081, 2.375, 0, -1
1082, 2.5, 0.125, -1
1083, 2.375, 0.25, -1
1084, 2.375, 0, -0.875
1085, 2.5, 0.125, -0.875
1086, 2.375, 0.25, -0.875
1087, 2.5, 0, -0.9375
1088, 2.5, 0.25, -0.9375
1089, 2.75, 0, -1
1090, 2.75, 0.25, -1
1091, 2.75, 0, -0.875
1092, 2.75, 0.25, -0.875
1093, 2.625, 0, -1
1094, 2.75, 0.125, -1
1095, 2.625, 0.25, -1
1096, 2.625, 0, -0.875
1097, 2.75, 0.125, -0.875
1098, 2.625, 0.25, -0.875
1099, 2.75, 0, -0.9375
1100, 2.75, 0.25, -0.9375
1101, 3, 0, -1
1102, 3, 0.25, -1
1103, 3, 0, -0.875
1104, 3, 0.25, -0.875
1105, 2.875, 0, -1
1106, 3, 0.125, -1
1107, 2.875, 0.25, -1
1108, 2.875, 0, -0.875
1109, 3, 0.125, -0.875
1110, 2.875, 0.25, -0.875
1111, 3, 0, -0.9375
1112, 3, 0.25, -0.9375
1113, 3.25, 0, -1
1114, 3.25, 0.25, -1
1115, 3.25, 0, -0.875
1116, 3.25, 0.25, -0.875
1117, 3.125, 0, -1
1118, 3.25, 0.125, -1
1119, 3.125, 0.25, -1
1120, 3.125, 0, -0.875
1121, 3.25, 0.125, -0.875
1122, 3.125, 0.25, -0.875
1123, 3.25, 0, -0.9375
1124, 3.25, 0.25, -0.9375
1125, 3.5, 0, -1
1126, 3.5, 0.25, -1
1127, 3.5, 0, -0.875
1128, 3.5, 0.25, -0.875
1129, 3.375, 0, -1
1130, 3.5, 0.125, -1
1131, 3.375, 0.25, -1
1132, 3.375, 0, -0.875
1133, 3.5, 0.125, -0.875
1134, 3.375, 0.25, -0.875
1135, 3.5, 0, -0.9375
1136, 3.5, 0.25, -0.9375
1137, 3.75, 0, -1
1138, 3.75, 0.25, -1
1139, 3.75, 0, -0.875
1140, 3.75, 0.25, -0.875
1141, 3.625, 0, -1
1142, 3.75, 0.125, -1
1143, 3.625, 0.25, -1
1144, 3.625, 0, -0.875
1145, 3.75, 0.125, -0.875
1146, 3.625, 0.25, -0.875
1147, 3.75, 0, -0.9375
1148, 3.75, 0.25, -0.9375
1149, 4, 0, -1
1150, 4, 0.25, -1
1151, 4, 0, -0.875
1152, 4, 0.25, -0.875
1153, 3.875, 0, -1
1154, 4, 0.125, -1
1155, 3.875, 0.25, -1
1156, 3.875, 0, -0.875
1157, 4, 0.125, -0.875
1158, 3.875, 0.25, -0.875
1159, 4, 0, -0.9375
1160, 4, 0.25, -0.9375
1161, 4.25, 0, -1
1162, 4.25, 0.25, -1
1163, 4.25, 0, -0.875
1164, 4.25, 0.25, -0.875
1165, 4.125, 0, -1
1166, 4.25, 0.125, -1
1167, 4.125, 0.25, -1
1168, 4.125, 0, -0.875
1169, 4.25, 0.125, -0.875
1170, 4.125, 0.25, -0.875
1171, 4.25, 0, -0.9375
1172, 4.25, 0.25, -0.9375
1173, 4.5, 0, -1
1174, 4.5, 0.25, -1
1175, 4.5, 0, -0.875
1176, 4.5, 0.25, -0.875
1177, 4.375, 0, -1
1178, 4.5, 0.125, -1
1179, 4.375, 0.25, -1
1180, 4.375, 0, -0.875
1181, 4.5, 0.125, -0.875
1182, 4.375, 0.25, -0.875
1183, 4.5, 0, -0.9375
1184, 4.5, 0.25, -0.9375
1185, 4.75, 0, -1
1186, 4.75, 0.25, -1
1187, 4.75, 0, -0.875
1188, 4.75, 0.25, -0.875
1189, 4.625, 0, -1
1190, 4.75, 0.125, -1
1191, 4.625, 0.25, -1
1192, 4.625, 0, -0.875
1193, 4.75, 0.125, -0.875
1194, 4.625, 0.25, -0.875
1195, 4.75, 0, -0.9375
1196, 4.75, 0.25, -0.9375
1197, 5, 0, -1
1198, 5, 0.25, -1
1199, 5, 0, -0.875
1200, 5, 0.25, -0.875
1201, 4.875, 0, -1
1202, 5, 0.125, -1
1203, 4.875, 0.25, -1
1204, 4.875, 0, -0.875
1205, 5, 0.125, -0.875
1206, 4.875, 0.25, -0.875
1207, 5, 0, -0.9375
1208, 5, 0.25, -0.9375
1209, 5.25, 0, -1
1210, 5.25, 0.25, -1
1211, 5.25, 0, -0.875
1212, 5.25, 0.25, -0.875
1213, 5.125, 0, -1
1214, 5.25, 0.125, -1
1215, 5.125, 0.25, -1
1216, 5.125, 0, -0.875
1217, 5.25, 0.125, -0.875
1218, 5.125, 0.25, -0.875
1219, 5.25, 0, -0.9375
1220, 5.25, 0.25, -0.9375
1221, 5.5, 0, -1
1222, 5.5, 0.25, -1
1223, 5.5, 0, -0.875
1224, 5.5, 0.25, -0.875
1225, 5.375, 0, -1
1226, 5.5, 0.125, -1
1227, 5.375, 0.25, -1
1228, 5.375, 0, -0.875
1229, 5.5, 0.125, -0.875
1230, 5.375, 0.25, -0.875
1231, 5.5, 0, -0.9375
1232, 5.5, 0.25, -0.9375
1233, 5.75, 0, -1
1234, 5.75, 0.25, -1
1235, 5.75, 0, -0.875
1236, 5.75, 0.25, -0.875
1237, 5.625, 0, -1
1238, 5.75, 0.125, -1
1239, 5.625, 0.25, -1
1240, 5.625, 0, -0.875
1241, 5.75, 0.125, -0.875
1242, 5.625, 0.25, -0.875
1243, 5.75, 0, -0.9375
1244, 5.75, 0.25, -0.9375
1245, 6, 0, -1
1246, 6, 0.25, -1
1247, 6, 0, -0.875
1248, 6, 0.25, -0.875
1249, 5.875, 0, -1
1250, 6, 0.125, -1
1251, 5.875, 0.25, -1
1252, 5.875, 0, -0.875
1253, 6, 0.125, -0.875
1254, 5.875, 0.25, -0.875
1255, 6, 0, -0.9375
1256, 6, 0.25, -0.9375
1257, 6.25, 0, -1
1258, 6.25, 0.25, -1
1259, 6.25, 0, -0.875
1260, 6.25, 0.25, -0.875
1261, 6.125, 0, -1
1262, 6.25, 0.125, -1
1263, 6.125, 0.25, -1
1264, 6.125, 0, -0.875
1265, 6.25, 0.125, -0.875
1266, 6.125, 0.25, -0.875
1267, 6.25, 0, -0.9375
1268, 6.25, 0.25, -0.9375
1269, 6.5, 0, -1
1270, 6.5, 0.25, -1
1271, 6.5, 0, -0.875
1272, 6.5, 0.25, -0.875
1273, 6.375, 0, -1
1274, 6.5, 0.125, -1
1275, 6.375, 0.25, -1
1276, 6.375, 0, -0.875
1277, 6.5, 0.125, -0.875
1278, 6.375, 0.25, -0.875
1279, 6.5, 0, -0.9375
1280, 6.5, 0.25, -0.9375
1281, 6.75, 0, -1
1282, 6.75, 0.25, -1
1283, 6.75, 0, -0.875
1284, 6.75, 0.25, -0.875
1285, 6.625, 0, -1
1286, 6.75, 0.125, -1
1287, 6.625, 0.25, -1
1288, 6.625, 0, -0.875
1289, 6.75, 0.125, -0.875
1290, 6.625, 0.25, -0.875
1291, 6.75, 0, -0.9375
1292, 6.75, 0.25, -0.9375
1293, 7, 0, -1
1294, 7, 0.25, -1
1295, 7, 0, -0.875
1296, 7, 0.25, -0.875
1297, 6.875, 0, -1
1298, 7, 0.125, -1
1299, 6.875, 0.25, -1
1300, 6.875, 0, -0.875
1301, 7, 0.125, -0.875
1302, 6.875, 0.25, -0.875
1303, 7, 0, -0.9375
1304, 7, 0.25, -0.9375
1305, 7.25, 0, -1
1306, 7.25, 0.25, -1
1307, 7.25, 0, -0.875
1308, 7.25, 0.25, -0.875
1309, 7.125, 0, -1
1310, 7.25, 0.125, -1
1311, 7.125, 0.25, -1
1312, 7.125, 0, -0.875
1313, 7.25, 0.125, -0.875
1314, 7.125, 0.25, -0.875
1315, 7.25, 0, -0.9375
1316, 7.25, 0.25, -0.9375
1317, 7.5, 0, -1
1318, 7.5, 0.25, -1
1319, 7.5, 0, -0.875
1320, 7.5, 0.25, -0.875
1321, 7.375, 0, -1
1322, 7.5, 0.125, -1
1323, 7.375, 0.25, -1
1324, 7.375, 0, -0.875
1325, 7.5, 0.125, -0.875
1326, 7.375, 0.25, -0.875
1327, 7.5, 0, -0.9375
1328, 7.5, 0.25, -0.9375
1329, 7.75, 0, -1
1330, 7.75, 0.25, -1
1331, 7.75, 0, -0.875
1332, 7.75, 0.25, -0.875
1333, 7.625, 0, -1
1334, 7.75, 0.125, -1
1335, 7.625, 0.25, -1
1336, 7.625, 0, -0.875
1337, 7.75, 0.125, -0.875
1338, 7.625, 0.25, -0.875
1339, 7.75, 0, -0.9375
1340, 7.75, 0.25, -0.9375
1341, 8, 0, -1
1342, 8, 0.25, -1
1343, 8, 0, -0.875
1344, 8, 0.25, -0.875
1345, 7.875, 0, -1
1346, 8, 0.125, -1
1347, 7.875, 0.25, -1
1348, 7.875, 0, -0.875
1349, 8, 0.125, -0.875
1350, 7.875, 0.25, -0.875
1351, 8, 0, -0.9375
1352, 8, 0.25, -0.9375
1353, 8.25, 0, -1
1354, 8.25, 0.25, -1
1355, 8.25, 0, -0.875
1356, 8.25, 0.25, -0.875
1357, 8.125, 0, -1
1358, 8.25, 0.125, -1
1359, 8.125, 0.25, -1
1360, 8.125, 0, -0.875
1361, 8.25, 0.125, -0.875
1362, 8.125, 0.25, -0.875
1363, 8.25, 0, -0.9375
1364, 8.25, 0.25, -0.9375
1365, 8.5, 0, -1
1366, 8.5, 0.25, -1
1367, 8.5, 0, -0.875
1368, 8.5, 0.25, -0.875
1369, 8.375, 0, -1
1370, 8.5, 0.125, -1
1371, 8.375, 0.25, -1
1372, 8.375, 0, -0.875
1373, 8.5, 0.125, -0.875
1374, 8.375, 0.25, -0.875
1375, 8.5, 0, -0.9375
1376, 8.5, 0.25, -0.9375
1377, 8.75, 0, -1
1378, 8.75, 0.25, -1
1379, 8.75, 0, -0.875
1380, 8.75, 0.25, -0.875
1381, 8.625, 0, -1
1382, 8.75, 0.125, -1
1383, 8.625, 0.25, -1
1384, 8.625, 0, -0.875
1385, 8.75, 0.125, -0.875
1386, 8.625, 0.25, -0.875
1387, 8.75, 0, -0.9375
1388, 8.75, 0.25, -0.9375
1389, 9, 0, -1
1390, 9, 0.25, -1
1391, 9, 0, -0.875
1392, 9, 0.25, -0.875
1393, 8.875, 0, -1
1394, 9, 0.125, -1
1395, 8.875, 0.25, -1
1396, 8.875, 0, -0.875
1397, 9, 0.125, -0.875
1398, 8.875, 0.25, -0.875
1399, 9, 0, -0.9375
1400, 9, 0.25, -0.9375
1401, 9.25, 0, -1
1402, 9.25, 0.25, -1
1403, 9.25, 0, -0.875
1404, 9.25, 0.25, -0.875
1405, 9.125, 0, -1
1406, 9.25, 0.125, -1
1407, 9.125, 0.25, -1
1408, 9.125, 0, -0.875
1409, 9.25, 0.125, -0.875
1410, 9.125, 0.25, -0.875
1411, 9.25, 0, -0.9375
1412, 9.25, 0.25, -0.9375
1413, 9.5, 0, -1
1414, 9.5, 0.25, -1
1415, 9.5, 0, -0.875
1416, 9.5, 0.25, -0.875
1417, 9.375, 0, -1
1418, 9.5, 0.125, -1
1419, 9.375, 0.25, -1
1420, 9.375, 0, -0.875
1421, 9.5, 0.125, -0.875
1422, 9.375, 0.25, -0.875
1423, 9.5, 0, -0.9375
1424, 9.5, 0.25, -0.9375
1425, 9.75, 0, -1
1426, 9.75, 0.25, -1
1427, 9.75, 0, -0.875
1428, 9.75, 0.25, -0.875
1429, 9.625, 0, -1
1430, 9.75, 0.125, -1
1431, 9.625, 0.25, -1
1432, 9.625, 0, -0.875
1433, 9.75, 0.125, -0.875
1434, 9.625, 0.25, -0.875
1435, 9.75, 0, -0.9375
1436, 9.75, 0.25, -0.9375
1437, 10, 0, -1
1438, 10, 0.25, -1
1439, 10, 0, -0.875
1440, 10, 0.25, -0.875
1441, 9.875, 0, -1
1442, 10, 0.125, -1
1443, 9.875, 0.25, -1
1444, 9.875, 0, -0.875
1445, 10, 0.125, -0.875
1446, 9.875, 0.25, -0.875
1447, 10, 0, -0.9375
1448, 10, 0.25, -0.9375
1449, 10.25, 0, -1
1450, 10.25, 0.25, -1
1451, 10.25, 0, -0.875
1452, 10.25, 0.25, -0.875
1453, 10.125, 0, -1
1454, 10.25, 0.125, -1
1455, 10.125, 0.25, -1
1456, 10.125, 0, -0.875
1457, 10.25, 0.125, -0.875
1458, 10.125, 0.25, -0.875
1459, 10.25, 0, -0.9375
1460, 10.25, 0.25, -0.9375
1461, 10.5, 0, -1
1462, 10.5, 0.25, -1
1463, 10.5, 0, -0.875
1464, 10.5, 0.25, -0.875
1465, 10.375, 0, -1
1466, 10.5, 0.125, -1
1467, 10.375, 0.25, -1
1468, 10.375, 0, -0.875
1469, 10.5, 0.125, -0.875
1470, 10.375, 0.25, -0.875
1471, 10.5, 0, -0.9375
1472, 10.5, 0.25, -0.9375
1473, 10.75, 0, -1
1474, 10.75, 0.25, -1
1475, 10.75, 0, -0.875
1476, 10.75, 0.25, -0.875
1477, 10.625, 0, -1
1478, 10.75, 0.125, -1
1479, 10.625, 0.25, -1
1480, 10.625, 0, -0.875
1481, 10.75, 0.125, -0.875
1482, 10.625, 0.25, -0.875
1483, 10.75, 0, -0.9375
1484, 10.75, 0.25, -0.9375
1485, 11, 0, -1
1486, 11, 0.25, -1
1487, 11, 0, -0.875
1488, 11, 0.25, -0.875
1489, 10.875, 0, -1
1490, 11, 0.125, -1
1491, 10.875, 0.25, -1
1492, 10.875, 0, -0.875
1493, 11, 0.125, -0.875
1494, 10.875, 0.25, -0.875
1495, 11, 0, -0.9375
1496, 11, 0.25, -0.9375
1497, 11.25, 0, -1
1498, 11.25, 0.25, -1
1499, 11.25, 0, -0.875
1500, 11.25, 0.25, -0.875
1501, 11.125, 0, -1
1502, 11.25, 0.125, -1
1503, 11.125, 0.25, -1
1504, 11.125, 0, -0.875
1505, 11.25, 0.125, -0.875
1506, 11.125, 0.25, -0.875
1507, 11.25, 0, -0.9375
1508, 11.25, 0.25, -0.9375
1509, 11.5, 0, -1
1510, 11.5, 0.25, -1
1511, 11.5, 0, -0.875
1512, 11.5, 0.25, -0.875
1513, 11.375, 0, -1
1514, 11.5, 0.125, -1
1515, 11.375, 0.25, -1
1516, 11.375, 0, -0.875
1517, 11.5, 0.125, -0.875
1518, 11.375, 0.25, -0.875
1519, 11.5, 0, -0.9375
1520, 11.5, 0.25, -0.9375
1521, 11.75, 0, -1
1522, 11.75, 0.25, -1
1523, 11.75, 0, -0.875
1524, 11.75, 0.25, -0.875
1525, 11.625, 0, -1
1526, 11.75, 0.125, -1
1527, 11.625, 0.25, -1
1528, 11.625, 0, -0.875
1529, 11.75, 0.125, -0.875
1530, 11.625, 0.25, -0.875
1531, 11.75, 0, -0.9375
1532, 11.75, 0.25, -0.9375
1533, 12, 0, -1
1534, 12, 0.25, -1
1535, 12, 0, -0.875
1536, 12, 0.25, -0.875
1537, 11.875, 0, -1
1538, 12, 0.125, -1
1539, 11.875, 0.25, -1
1540, 11.875, 0, -0.875
1541, 12, 0.125, -0.875
1542, 11.875, 0.25, -0.875
1543, 12, 0, -0.9375
1544, 12, 0.25, -0.9375
1545, 12.25, 0, -1
1546, 12.25, 0.25, -1
1547, 12.25, 0, -0.875
1548, 12.25, 0.25, -0.875
1549, 12.125, 0, -1
1550, 12.25, 0.125, -1
1551, 12.125, 0.25, -1
1552, 12.125, 0, -0.875
1553, 12.25, 0.125, -0.875
1554, 12.125, 0.25, -0.875
1555, 12.25, 0, -0.9375
1556, 12.25, 0.25, -0.9375
1557, 12.5, 0, -1
1558, 12.5, 0.25, -1
1559, 12.5, 0, -0.875
1560, 12.5, 0.25, -0.875
1561, 12.375, 0, -1
1562, 12.5, 0.125, -1
1563, 12.375, 0.25, -1
1564, 12.375, 0, -0.875
1565, 12.5, 0.125, -0.875
1566, 12.375, 0.25, -0.875
1567, 12.5, 0, -0.9375
1568, 12.5, 0.25, -0.9375
1569, 12.75, 0, -1
1570, 12.75, 0.25, -1
1571, 12.75, 0, -0.875
1572, 12.75, 0.25, -0.875
1573, 12.625, 0, -1
1574, 12.75, 0.125, -1
1575, 12.625, 0.25, -1
1576, 12.625, 0, -0.875
1577, 12.75, 0.125, -0.875
1578, 12.625, 0.25, -0.875
1579, 12.75, 0, -0.9375
1580, 12.75, 0.25, -0.9375
1581, 13, 0, -1
1582, 13, 0.25, -1
1583, 13, 0, -0.875
1584, 13, 0.25, -0.875
1585, 12.875, 0, -1
1586, 13, 0.125, -1
1587, 12.875, 0.25, -1
1588, 12.875, 0, -0.875
1589, 13, 0.125, -0.875
1590, 12.875, 0.25, -0.875
1591, 13, 0, -0.9375
1592, 13, 0.25, -0.9375
1593, 13.25, 0, -1
1594, 13.25, 0.25, -1
1595, 13.25, 0, -0.875
1596, 13.25, 0.25, -0.875
1597, 13.125, 0, -1
1598, 13.25, 0.125, -1
1599, 13.125, 0.25, -1
1600, 13.125, 0, -0.875
1601, 13.25, 0.125, -0.875
1602, 13.125, 0.25, -0.875
1603, 13.25, 0, -0.9375
1604, 13.25, 0.25, -0.9375
1605, 13.5, 0, -1
1606, 13.5, 0.25, -1
1607, 13.5, 0, -0.875
1608, 13.5, 0.25, -0.875
1609, 13.375, 0, -1
1610, 13.5, 0.125, -1
1611, 13.375, 0.25, -1
1612, 13.375, 0, -0.875
1613, 13.5, 0.125, -0.875
1614, 13.375, 0.25, -0.875
1615, 13.5, 0, -0.9375
1616, 13.5, 0.25, -0.9375
1617, 13.75, 0, -1
1618, 13.75, 0.25, -1
1619, 13.75, 0, -0.875
1620, 13.75, 0.25, -0.875
1621, 13.625, 0, -1
1622, 13.75, 0.125, -1
1623, 13.625, 0.25, -1
1624, 13.625, 0, -0.875
1625, 13.75, 0.125, -0.875
1626, 13.625, 0.25, -0.875
1627, 13.75, 0, -0.9375
1628, 13.75, 0.25, -0.9375
1629, 14, 0, -1
1630, 14, 0.25, -1
1631, 14, 0, -0.875
1632, 14, 0.25, -0.875
1633, 13.875, 0, -1
1634, 14, 0.125, -1
1635, 13.875, 0.25, -1
1636, 13.875, 0, -0.875
1637, 14, 0.125, -0.875
1638, 13.875, 0.25, -0.875
1639, 14, 0, -0.9375
1640, 14, 0.25, -0.9375
1641, 14.25, 0, -1
1642, 14.25, 0.25, -1
1643, 14.25, 0, -0.875
1644, 14.25, 0.25, -0.875
1645, 14.125, 0, -1
1646, 14.25, 0.125, -1
1647, 14.125, 0.25, -1
1648, 14.125, 0, -0.875
1649, 14.25, 0.125, -0.875
1650, 14.125, 0.25, -0.875
1651, 14.25, 0, -0.9375
1652, 14.25, 0.25, -0.9375
1653, 14.5, 0, -1
1654, 14.5, 0.25, -1
1655, 14.5, 0, -0.875
1656, 14.5, 0.25, -0.875
1657, 14.375, 0, -1
1658, 14.5, 0.125, -1
1659, 14.375, 0.25, -1
1660, 14.375, 0, -0.875
1661, 14.5, 0.125, -0.875
1662, 14.375, 0.25, -0.875
1663, 14.5, 0, -0.9375
1664, 14.5, 0.25, -0.9375
1665, 14.75, 0, -1
1666, 14.75, 0.25, -1
1667, 14.75, 0, -0.875
1668, 14.75, 0.25, -0.875
1669, 14.625, 0, -1
1670, 14.75, 0.125, -1
1671, 14.625, 0.25, -1
1672, 14.625, 0, -0.875
1673, 14.75, 0.125, -0.875
1674, 14.625, 0.25, -0.875
1675, 14.75, 0, -0.9375
1676, 14.75, 0.25, -0.9375
1677, 15, 0, -1
1678, 15, 0.25, -1
1679, 15, 0, -0.875
1680, 15, 0.25, -0.875
1681, 14.875, 0, -1
1682, 15, 0.125, -1
1683, 14.875, 0.25, -1
1684, 14.875, 0, -0.875
1685, 15, 0.125, -0.875
1686, 14.875, 0.25, -0.875
1687, 15, 0, -0.9375
1688, 15, 0.25, -0.9375
1689, 15.25, 0, -1
1690, 15.25, 0.25, -1
1691, 15.25, 0, -0.875
1692, 15.25, 0.25, -0.875
1693, 15.125, 0, -1
1694, 15.25, 0.125, -1
1695, 15.125, 0.25, -1
1696, 15.125, 0, -0.875
1697, 15.25, 0.125, -0.875
1698, 15.125, 0.25, -0.875
1699, 15.25, 0, -0.9375
1700, 15.25, 0.25, -0.9375
1701, 15.5, 0, -1
1702, 15.5, 0.25, -1
1703, 15.5, 0, -0.875
1704, 15.5, 0.25, -0.875
1705, 15.375, 0, -1
1706, 15.5, 0.125, -1
1707, 15.375, 0.25, -1
1708, 15.375, 0, -0.875
1709, 15.5, 0.125, -0.875
1710, 15.375, 0.25, -0.875
1711, 15.5, 0, -0.9375
1712, 15.5, 0.25, -0.9375
1713, 15.75, 0, -1
1714, 15.75, 0.25, -1
1715, 15.75, 0, -0.875
1716, 15.75, 0.25, -0.875
1717, 15.625, 0, -1
1718, 15.75, 0.125, -1
1719, 15.625, 0.25, -1
1720, 15.625, 0, -0.875
1721, 15.75, 0.125, -0.875
1722, 15.625, 0.25, -0.875
1723, 15.75, 0, -0.9375
1724, 15.75, 0.25, -0.9375
1725, 16, 0, -1
1726, 16, 0.25, -1
1727, 16, 0, -0.875
1728, 16, 0.25, -0.875
1729, 15.875, 0, -1
1730, 16, 0.125, -1
1731, 15.875, 0.25, -1
1732, 15.875, 0, -0.875
1733, 16, 0.125, -0.875
1734, 15.875, 0.25, -0.875
1735, 16, 0, -0.9375
1736, 16, 0.25, -0.9375
1737, 16.25, 0, -1
1738, 16.25, 0.25, -1
1739, 16.25, 0, -0.875
1740, 16.25, 0.25, -0.875
1741, 16.125, 0, -1
1742, 16.25, 0.125, -1
1743, 16.125, 0.25, -1
1744, 16.125, 0, -0.875
1745, 16.25, 0.125, -0.875
1746, 16.125, 0.25, -0.875
1747, 16.25, 0, -0.9375
1748, 16.25, 0.25, -0.9375
1749, 16.5, 0, -1
1750, 16.5, 0.25, -1
1751, 16.5, 0, -0.875
1752, 16.5, 0.25, -0.875
1753, 16.375, 0, -1
1754, 16.5, 0.125, -1
1755, 16.375, 0.25, -1
1756, 16.375, 0, -0.875
1757, 16.5, 0.125, -0.875
1758, 16.375, 0.25, -0.875
1759, 16.5, 0, -0.9375
1760, 16.5, 0.25, -0.9375
1761, 16.75, 0, -1
1762, 16.75, 0.25, -1
1763, 16.75, 0, -0.875
1764, 16.75, 0.25, -0.875
1765, 16.625, 0, -1
1766, 16.75, 0.125, -1
1767, 16.625, 0.25, -1
1768, 16.625, 0, -0.875
1769, 16.75, 0.125, -0.875
1770, 16.625, 0.25, -0.875
1771, 16.75, 0, -0.9375
1772, 16.75, 0.25, -0.9375
1773, 17, 0, -1
1774, 17, 0.25, -1
1775, 17, 0, -0.875
1776, 17, 0.25, -0.875
1777, 16.875, 0, -1
1778, 17, 0.125, -1
1779, 16.875, 0.25, -1
1780, 16.875, 0, -0.875
1781, 17, 0.125, -0.875
1782, 16.875, 0.25, -0.875
1783, 17, 0, -0.9375
1784, 17, 0.25, -0.9375
1785, 17.25, 0, -1
1786, 17.25, 0.25, -1
1787, 17.25, 0, -0.875
1788, 17.25, 0.25, -0.875
1789, 17.125, 0, -1
1790, 17.25, 0.125, -1
1791, 17.125, 0.25, -1
1792, 17.125, 0, -0.875
1793, 17.25, 0.125, -0.875
1794, 17.125, 0.25, -0.875
1795, 17.25, 0, -0.9375
1796, 17.25, 0.25, -0.9375
1797, 17.5, 0, -1
1798, 17.5, 0.25, -1
1799, 17.5, 0, -0.875
1800, 17.5, 0.25, -0.875
1801, 17.375, 0, -1
1802, 17.5, 0.125, -1
1803, 17.375, 0.25, -1
1804, 17.375, 0, -0.875
1805, 17.5, 0.125, -0.875
1806, 17.375, 0.25, -0.875
1807, 17.5, 0, -0.9375
1808, 17.5, 0.25, -0.9375
1809, 17.75, 0, -1
1810, 17.75, 0.25, -1
1811, 17.75, 0, -0.875
1812, 17.75, 0.25, -0.875
1813, 17.625, 0, -1
1814, 17.75, 0.125, -1
1815, 17.625, 0.25, -1
1816, 17.625, 0, -0.875
1817, 17.75, 0.125, -0.875
1818, 17.625, 0.25, -0.875
1819, 17.75, 0, -0.9375
1820, 17.75, 0.25, -0.9375
1821, 18, 0, -1
1822, 18, 0.25, -1
1823, 18, 0, -0.875
1824, 18, 0.25, -0.875
1825, 17.875, 0, -1
1826, 18, 0.125, -1
1827, 17.875, 0.25, -1
1828, 17.875, 0, -0.875
1829, 18, 0.125, -0.875
1830, 17.875, 0.25, -0.875
1831, 18, 0, -0.9375
1832, 18, 0.25, -0.9375
1833, 18.25, 0, -1
1834, 18.25, 0.25, -1
1835, 18.25, 0, -0.875
1836, 18.25, 0.25, -0.875
1837, 18.125, 0, -1
1838, 18.25, 0.125, -1
1839, 18.125, 0.25, -1
1840, 18.125, 0, -0.875
1841, 18.25, 0.125, -0.875
1842, 18.125, 0.25, -0.875
1843, 18.25, 0, -0.9375
1844, 18.25, 0.25, -0.9375
1845, 18.5, 0, -1
1846, 18.5, 0.25, -1
1847, 18.5, 0, -0.875
1848, 18.5, 0.25, -0.875
1849, 18.375, 0, -1
1850, 18.5, 0.125, -1
1851, 18.375, 0.25, -1
1852, 18.375, 0, -0.875
1853, 18.5, 0.125, -0.875
1854, 18.375, 0.25, -0.875
1855, 18.5, 0, -0.9375
1856, 18.5, 0.25, -0.9375
1857, 18.75, 0, -1
1858, 18.75, 0.25, -1
1859, 18.75, 0, -0.875
1860, 18.75, 0.25, -0.875
1861, 18.625, 0, -1
1862, 18.75, 0.125, -1
1863, 18.625, 0.25, -1
1864, 18.625, 0, -0.875
1865, 18.75, 0.125, -0.875
1866, 18.625, 0.25, -0.875
1867, 18.75, 0, -0.9375
1868, 18.75, 0.25, -0.9375
1869, 19, 0, -1
1870, 19, 0.25, -1
1871, 19, 0, -0.875
1872, 19, 0.25, -0.875
1873, 18.875, 0, -1
1874, 19, 0.125, -1
1875, 18.875, 0.25, -1
1876, 18.875, 0, -0.875
1877, 19, 0.125, -0.875
1878, 18.875, 0.25, -0.875
1879, 19, 0, -0.9375
1880, 19, 0.25, -0.9375
1881, 19.25, 0, -1
1882, 19.25, 0.25, -1
1883, 19.25, 0, -0.875
1884, 19.25, 0.25, -0.875
1885, 19.125, 0, -1
1886, 19.25, 0.125, -1
1887, 19.125, 0.25, -1
1888, 19.125, 0, -0.875
1889, 19.25, 0.125, -0.875
1890, 19.125, 0.25, -0.875
1891, 19.25, 0, -0.9375
1892, 19.25, 0.25, -0.9375
1893, 19.5, 0, -1
1894, 19.5, 0.25, -1
1895, 19.5, 0, -0.875
1896, 19.5, 0.25, -0.875
1897, 19.375, 0, -1
1898, 19.5, 0.125, -1
1899, 19.375, 0.25, -1
1900, 19.375, 0, -0.875
1901, 19.5, 0.125, -0.875
1902, 19.375, 0.25, -0.875
1903, 19.5, 0, -0.9375
1904, 19.5, 0.25, -0.9375
1905, 19.75, 0, -1
1906, 19.75, 0.25, -1
1907, 19.75, 0, -0.875
1908, 19.75, 0.25, -0.875
1909, 19.625, 0, -1
1910, 19.75, 0.125, -1
1911, 19.625, 0.25, -1
1912, 19.625, 0, -0.875
1913, 19.75, 0.125, -0.875
1914, 19.625, 0.25, -0.875
1915, 19.75, 0, -0.9375
1916, 19.75, 0.25, -0.9375
1917, 20, 0, -1
1918, 20, 0.25, -1
1919, 20, 0, -0.875
1920, 20, 0.25, -0.875
1921, 19.875, 0, -1
1922, 20, 0.125, -1
1923, 19.875, 0.25, -1
1924, 19.875, 0, -0.875
1925, 20, 0.125, -0.875
1926, 19.875, 0.25, -0.875
1927, 20, 0, -0.9375
1928, 20, 0.25, -0.9375
1929, -20, 0, -0.75
1930, -19.75, 0, -0.75
1931, -19.75, 0.25, -0.75
1932, -20, 0.25, -0.75
1933, -19.875, 0, -0.75
1934, -19.75, 0.125, -0.75
1935, -19.875, 0.25, -0.75
1936, -20, 0.125, -0.75
1937, -20, 0, -0.8125
1938, -19.75, 0, -0.8125
1939, -19.75, 0.25, -0.8125
1940, -20, 0.25, -0.8125
1941, -19.5, 0, -0.75
1942, -19.5, 0.25, -0.75
1943, -19.625, 0, -0.75
1944, -19.5, 0.125, -0.75
1945, -19.625, 0.25, -0.75
1946, -19.5, 0, -0.8125
1947, -19.5, 0.25, -0.8125
1948, -19.25, 0, -0.75
1949, -19.25, 0.25, -0.75
1950, -19.375, 0, -0.75
1951, -19.25, 0.125, -0.75
1952, -19.375, 0.25, -0.75
1953, -19.25, 0, -0.8125
1954, -19.25, 0.25, -0.8125
1955, -19, 0, -0.75
1956, -19, 0.25, -0.75
1957, -19.125, 0, -0.75
1958, -19, 0.125, -0.75
1959, -19.125, 0.25, -0.75
1960, -19, 0, -0.8125
1961, -19, 0.25, -0.8125
1962, -18.75, 0, -0.75
1963, -18.75, 0.25, -0.75
1964, -18.875, 0, -0.75
1965, -18.75, 0.125, -0.75
1966, -18.875, 0.25, -0.75
1967, -18.75, 0, -0.8125
1968, -18.75, 0.25, -0.8125
1969, -18.5, 0, -0.75
1970, -18.5, 0.25, -0.75
1971, -18.625, 0, -0.75
1972, -18.5, 0.125, -0.75
1973, -18.625, 0.25, -0.75
1974, -18.5, 0, -0.8125
1975, -18.5, 0.25, -0.8125
1976, -18.25, 0, -0.75
1977, -18.25, 0.25, -0.75
1978, -18.375, 0, -0.75
1979, -18.25, 0.125, -0.75
1980, -18.375, 0.25, -0.75
1981, -18.25, 0, -0.8125
1982, -18.25, 0.25, -0.8125
1983, -18, 0, -0.75
1984, -18, 0.25, -0.75
1985, -18.125, 0, -0.75
1986, -18, 0.125, -0.75
1987, -18.125, 0.25, -0.75
1988, -18, 0, -0.8125
1989, -18, 0.25, -0.8125
1990, -17.75, 0, -0.75
1991, -17.75, 0.25, -0.75
1992, -17.875, 0, -0.75
1993, -17.75, 0.125, -0.75
1994, -17.875, 0.25, -0.75
1995, -17.75, 0, -0.8125
1996, -17.75, 0.25, -0.8125
1997, -17.5, 0, -0.75
1998, -17.5, 0.25, -0.75
1999, -17.625, 0, -0.75
2000, -17.5, 0.125, -0.75
2001, -17.625, 0.25, -0.75
2002, -17.5, 0, -0.8125
2003, -17.5, 0.25, -0.8125
2004, -17.25, 0, -0.75
2005, -17.25, 0.25, -0.75
2006, -17.375, 0, -0.75
2007, -17.25, 0.125, -0.75
2008, -17.375, 0.25, -0.75
2009, -17.25, 0, -0.8125
2010, -17.25, 0.25, -0.8125
2011, -17, 0, -0.75
2012, -17, 0.25, -0.75
2013, -17.125, 0, -0.75
2014, -17, 0.125, -0.75
2015, -17.125, 0.25, -0.75
2016, -17, 0, -0.8125
2017, -17, 0.25, -0.8125
2018, -16.75, 0, -0.75
2019, -16.75, 0.25, -0.75
2020, -16.875, 0, -0.75
2021, -16.75, 0.125, -0.75
2022, -16.875, 0.25, -0.75
2023, -16.75, 0, -0.8125
2024, -16.75, 0.25, -0.8125
2025, -16.5, 0, -0.75
2026, -16.5, 0.25, -0.75
2027, -16.625, 0, -0.75
2028, -16.5, 0.125, -0.75
2029, -16.625, 0.25, -0.75
2030, -16.5, 0, -0.8125
2031, -16.5, 0.25, -0.8125
2032, -16.25, 0, -0.75
2033, -16.25, 0.25, -0.75
2034, -16.375, 0, -0.75
2035, -16.25, 0.125, -0.75
2036, -16.375, 0.25, -0.75
2037, -16.25, 0, -0.8125
2038, -16.25, 0.25, -0.8125
2039, -16, 0, -0.75
2040, -16, 0.25, -0.75
2041, -16.125, 0, -0.75
2042, -16, 0.125, -0.75
2043, -16.125, 0.25, -0.75
2044, -16, 0, -0.8125
2045, -16, 0.25, -0.8125
2046, -15.75, 0, -0.75
2047, -15.75, 0.25, -0.75
2048, -15.875, 0, -0.75
2049, -15.75, 0.125, -0.75
2050, -15.875, 0.25, -0.75
2051, -15.75, 0, -0.8125
2052, -15.75, 0.25, -0.8125
2053, -15.5, 0, -0.75
2054, -15.5, 0.25, -0.75
2055, -15.625, 0, -0.75
2056, -15.5, 0.125, -0.75
2057, -15.625, 0.25, -0.75
2058, -15.5, 0, -0.8125
2059, -15.5, 0.25, -0.8125
2060, -15.25, 0, -0.75
2061, -15.25, 0.25, -0.75
2062, -15.375, 0, -0.75
2063, -15.25, 0.125, -0.75
2064, -15.375, 0.25, -0.75
2065, -15.25, 0, -0.8125
2066, -15.25, 0.25, -0.8125
2067, -15, 0, -0.75
2068, -15, 0.25, -0.75
2069, -15.125, 0, -0.75
2070, -15, 0.125, -0.75
2071, -15.125, 0.25, -0.75
2072, -15, 0, -0.8125
2073, -15, 0.25, -0.8125
2074, -14.75, 0, -0.75
2075, -14.75, 0.25, -0.75
2076, -14.875, 0, -0.75
2077, -14.75, 0.125, -0.75
2078, -14.875, 0.25, -0.75
2079, -14.75, 0, -0.8125
2080, -14.75, 0.25, -0.8125
2081, -14.5, 0, -0.75
2082, -14.5, 0.25, -0.75
2083, -14.625, 0, -0.75
2084, -14.5, 0.125, -0.75
2085, -14.625, 0.25, -0.75
2086, -14.5, 0, -0.8125
2087, -14.5, 0.25, -0.8125
2088, -14.25, 0, -0.75
2089, -14.25, 0.25, -0.75
2090, -14.375, 0, -0.75
2091, -14.25, 0.125, -0.75
2092, -14.375, 0.25, -0.75
2093, -14.25, 0, -0.8125
2094, -14.25, 0.25, -0.8125
2095, -14, 0, -0.75
2096, -14, 0.25, -0.75
2097, -14.125, 0, -0.75
2098, -14, 0.125, -0.75
2099, -14.125, 0.25, -0.75
2100, -14, 0, -0.8125
2101, -14, 0.25, -0.8125
2102, -13.75, 0, -0.75
2103, -13.75, 0.25, -0.75
2104, -13.875, 0, -0.75
2105, -13.75, 0.125, -0.75
2106, -13.875, 0.25, -0.75
2107, -13.75, 0, -0.8125
2108, -13.75, 0.25, -0.8125
2109, -13.5, 0, -0.75
2110, -13.5, 0.25, -0.75
2111, -13.625, 0, -0.75
2112, -13.5, 0.125, -0.75
2113, -13.625, 0.25, -0.75
2114, -13.5, 0, -0.8125
2115, -13.5, 0.25, -0.8125
2116, -13.25, 0, -0.75
2117, -13.25, 0.25, -0.75
2118, -13.375, 0, -0.75
2119, -13.25, 0.125, -0.75
2120, -13.375, 0.25, -0.75
2121, -13.25, 0, -0.8125
2122, -13.25, 0.25, -0.8125
2123, -13, 0, -0.75
2124, -13, 0.25, -0.75
2125, -13.125, 0, -0.75
2126, -13, 0.125, -0.75
2127, -13.125, 0.25, -0.75
2128, -13, 0, -0.8125
2129, -13, 0.25, -0.8125
2130, -12.75, 0, -0.75
2131, -12.75, 0.25, -0.75
2132, -12.875, 0, -0.75
2133, -12.75, 0.125, -0.75
2134, -12.875, 0.25, -0.75
2135, -12.75, 0, -0.8125
2136, -12.75, 0.25, -0.8125
2137, -12.5, 0, -0.75
2138, -12.5, 0.25, -0.75
2139, -12.625, 0, -0.75
2140, -12.5, 0.125, -0.75
2141, -12.625, 0.25, -0.75
2142, -12.5, 0, -0.8125
2143, -12.5, 0.25, -0.8125
2144, -12.25, 0, -0.75
2145, -12.25, 0.25, -0.75
2146, -12.375, 0, -0.75
2147, -12.25, 0.125, -0.75
2148, -12.375, 0.25, -0.75
2149, -12.25, 0, -0.8125
2150, -12.25, 0.25, -0.8125
2151, -12, 0, -0.75
2152, -12, 0.25, -0.75
2153, -12.125, 0, -0.75
2154, -12, 0.125, -0.75
2155, -12.125, 0.25, -0.75
2156, -12, 0, -0.8125
2157, -12, 0.25, -0.8125
2158, -11.75, 0, -0.75
2159, -11.75, 0.25, -0.75
2160, -11.875, 0, -0.75
2161, -11.75, 0.125, -0.75
2162, -11.875, 0.25, -0.75
2163, -11.75, 0, -0.8125
2164, -11.75, 0.25, -0.8125
2165, -11.5, 0, -0.75
2166, -11.5, 0.25, -0.75
2167, -11.625, 0, -0.75
2168, -11.5, 0.125, -0.75
2169, -11.625, 0.25, -0.75
2170, -11.5, 0, -0.8125
2171, -11.5, 0.25, -0.8125
2172, -11.25, 0, -0.75
2173, -11.25, 0.25, -0.75
2174, -11.375, 0, -0.75
2175, -11.25, 0.125, -0.75
2176, -11.375, 0.25, -0.75
2177, -11.25, 0, -0.8125
2178, -11.25, 0.25, -0.8125
2179, -11, 0, -0.75
2180, -11, 0.25, -0.75
2181, -11.125, 0, -0.75
2182, -11, 0.125, -0.75
2183, -11.125, 0.25, -0.75
2184, -11, 0, -0.8125
2185, -11, 0.25, -0.8125
2186, -10.75, 0, -0.75
2187, -10.75, 0.25, -0.75
2188, -10.875, 0, -0.75
2189, -10.75, 0.125, -0.75
2190, -10.875, 0.25, -0.75
2191, -10.75, 0, -0.8125
2192, -10.75, 0.25, -0.8125
2193, -10.5, 0, -0.75
2194, -10.5, 0.25, -0.75
2195, -10.625, 0, -0.75
2196, -10.5, 0.125, -0.75
2197, -10.625, 0.25, -0.75
2198, -10.5, 0, -0.8125
2199, -10.5, 0.25, -0.8125
2200, -10.25, 0, -0.75
2201, -10.25, 0.25, -0.75
2202, -10.375, 0, -0.75
2203, -10.25, 0.125, -0.75
2204, -10.375, 0.25, -0.75
2205, -10.25, 0, -0.8125
2206, -10.25, 0.25, -0.8125
2207, -10, 0, -0.75
2208, -10, 0.25, -0.75
2209, -10.125, 0, -0.75
2210, -10, 0.125, -0.75
2211, -10.125, 0.25, -0.75
2212, -10, 0, -0.8125
2213, -10, 0.25, -0.8125
2214, -9.75, 0, -0.75
2215, -9.75, 0.25, -0.75
2216, -9.875, 0, -0.75
2217, -9.75, 0.125, -0.75
2218, -9.875, 0.25, -0.75
2219, -9.75, 0, -0.8125
2220, -9.75, 0.25, -0.8125
2221, -9.5, 0, -0.75
2222, -9.5, 0.25, -0.75
2223, -9.625, 0, -0.75
2224, -9.5, 0.125, -0.75
2225, -9.625, 0.25, -0.75
2226, -9.5, 0, -0.8125
2227, -9.5, 0.25, -0.8125
2228, -9.25, 0, -0.75
2229, -9.25, 0.25, -0.75
2230, -9.375, 0, -0.75
2231, -9.25, 0.125, -0.75
2232, -9.375, 0.25, -0.75
2233, -9.25, 0, -0.8125
2234, -9.25, 0.25, -0.8125
2235, -9, 0, -0.75
2236, -9, 0.25, -0.75
2237, -9.125, 0, -0.75
2238, -9, 0.125, -0.75
2239, -9.125, 0.25, -0.75
2240, -9, 0, -0.8125
2241, -9, 0.25, -0.8125
2242, -8.75, 0, -0.75
2243, -8.75, 0.25, -0.75
2244, -8.875, 0, -0.75
2245, -8.75, 0.125, -0.75
2246, -8.875, 0.25, -0.75
2247, -8.75, 0, -0.8125
2248, -8.75, 0.25, -0.8125
2249, -8.5, 0, -0.75
2250, -8.5, 0.25, -0.75
2251, -8.625, 0, -0.75
2252, -8.5, 0.125, -0.75
2253, -8.625, 0.25, -0.75
2254, -8.5, 0, -0.8125
2255, -8.5, 0.25, -0.8125
2256, -8.25, 0, -0.75
2257, -8.25, 0.25, -0.75
2258, -8.375, 0, -0.75
2259, -8.25, 0.125, -0.75
2260, -8.375, 0.25, -0.75
2261, -8.25, 0, -0.8125
2262, -8.25, 0.25, -0.8125
2263, -8, 0, -0.75
2264, -8, 0.25, -0.75
2265, -8.125, 0, -0.75
2266, -8, 0.125, -0.75
2267, -8.125, 0.25, -0.75
2268, -8, 0, -0.8125
2269, -8, 0.25, -0.8125
2270, -7.75, 0, -0.75
2271, -7.75, 0.25, -0.75
2272, -7.875, 0, -0.75
2273, -7.75, 0.125, -0.75
2274, -7.875, 0.25, -0.75
2275, -7.75, 0, -0.8125
2276, -7.75, 0.25, -0.8125
2277, -7.5, 0, -0.75
2278, -7.5, 0.25, -0.75
2279, -7.625, 0, -0.75
2280, -7.5, 0.125, -0.75
2281, -7.625, 0.25, -0.75
2282, -7.5, 0, -0.8125
2283, -7.5, 0.25, -0.8125
2284, -7.25, 0, -0.75
2285, -7.25, 0.25, -0.75
2286, -7.375, 0, -0.75
2287, -7.25, 0.125, -0.75
2288, -7.375, 0.25, -0.75
2289, -7.25, 0, -0.8125
2290, -7.25, 0.25, -0.8125
2291, -7, 0, -0.75
2292, -7, 0.25, -0.75
2293, -7.125, 0, -0.75
2294, -7, 0.125, -0.75
2295, -7.125, 0.25, -0.75
2296, -7, 0, -0.8125
2297, -7, 0.25, -0.8125
2298, -6.75, 0, -0.75
2299, -6.75, 0.25, -0.75
2300, -6.875, 0, -0.75
2301, -6.75, 0.125, -0.75
2302, -6.875, 0.25, -0.75
2303, -6.75, 0, -0.8125
2304, -6.75, 0.25, -0.8125
2305, -6.5, 0, -0.75
2306, -6.5, 0.25, -0.75
2307, -6.625, 0, -0.75
2308, -6.5, 0.125, -0.75
2309, -6.625, 0.25, -0.75
2310, -6.5, 0, -0.8125
2311, -6.5, 0.25, -0.8125
2312, -6.25, 0, -0.75
2313, -6.25, 0.25, -0.75
2314, -6.375, 0, -0.75
2315, -6.25, 0.125, -0.75
2316, -6.375, 0.25, -0.75
2317, -6.25, 0, -0.8125
2318, -6.25, 0.25, -0.8125
2319, -6, 0, -0.75
2320, -6, 0.25, -0.75
2321, -6.125, 0, -0.75
2322, -6, 0.125, -0.75
2323, -6.125, 0.25, -0.75
2324, -6, 0, -0.8125
2325, -6, 0.25, -0.8125
2326, -5.75, 0, -0.75
2327, -5.75, 0.25, -0.75
2328, -5.875, 0, -0.75
2329, -5.75, 0.125, -0.75
2330, -5.875, 0.25, -0.75
2331, -5.75, 0, -0.8125
2332, -5.75, 0.25, -0.8125
2333, -5.5, 0, -0.75
2334, -5.5, 0.25, -0.75
2335, -5.625, 0, -0.75
2336, -5.5, 0.125, -0.75
2337, -5.625, 0.25, -0.75
2338, -5.5, 0, -0.8125
2339, -5.5, 0.25, -0.8125
2340, -5.25, 0, -0.75
2341, -5.25, 0.25, -0.75
2342, -5.375, 0, -0.75
2343, -5.25, 0.125, -0.75
2344, -5.375, 0.25, -0.75
2345, -5.25, 0, -0.8125
2346, -5.25, 0.25, -0.8125
2347, -5, 0, -0.75
2348, -5, 0.25, -0.75
2349, -5.125, 0, -0.75
2350, -5, 0.125, -0.75
2351, -5.125, 0.25, -0.75
2352, -5, 0, -0.8125
2353, -5, 0.25, -0.8125
2354, -4.75, 0, -0.75
2355, -4.75, 0.25, -0.75
2356, -4.875, 0, -0.75
2357, -4.75, 0.125, -0.75
2358, -4.875, 0.25, -0.75
2359, -4.75, 0, -0.8125
2360, -4.75, 0.25, -0.8125
2361, -4.5, 0, -0.75
2362, -4.5, 0.25, -0.75
2363, -4.625, 0, -0.75
2364, -4.5, 0.125, -0.75
2365, -4.625, 0.25, -0.75
2366, -4.5, 0, -0.8125
2367, -4.5, 0.25, -0.8125
2368, -4.25, 0, -0.75
2369, -4.25, 0.25, -0.75
2370, -4.375, 0, -0.75
2371, -4.25, 0.125, -0.75
2372, -4.375, 0.25, -0.75
2373, -4.25, 0, -0.8125
2374, -4.25, 0.25, -0.8125
2375, -4, 0, -0.75
2376, -4, 0.25, -0.75
2377, -4.125, 0, -0.75
2378, -4, 0.125, -0.75
2379, -4.125, 0.25, -0.75
2380, -4, 0, -0.8125
2381, -4, 0.25, -0.8125
2382, -3.75, 0, -0.75
2383, -3.75, 0.25, -0.75
2384, -3.875, 0, -0.75
2385, -3.75, 0.125, -0.75
2386, -3.875, 0.25, -0.75
2387, -3.75, 0, -0.8125
2388, -3.75, 0.25, -0.8125
2389, -3.5, 0, -0.75
2390, -3.5, 0.25, -0.75
2391, -3.625, 0, -0.75
2392, -3.5, 0.125, -0.75
2393, -3.625, 0.25, -0.75
2394, -3.5, 0, -0.8125
2395, -3.5, 0.25, -0.8125
2396, -3.25, 0, -0.75
2397, -3.25, 0.25, -0.75
2398, -3.375, 0, -0.75
2399, -3.25, 0.125, -0.75
2400, -3.375, 0.25, -0.75
2401, -3.25, 0, -0.8125
2402, -3.25, 0.25, -0.8125
2403, -3, 0, -0.75
2404, -3, 0.25, -0.75
2405, -3.125, 0, -0.75
2406, -3, 0.125, -0.75
2407, -3.125, 0.25, -0.75
2408, -3, 0, -0.8125
2409, -3, 0.25, -0.8125
2410, -2.75, 0, -0.75
2411, -2.75, 0.25, -0.75
2412, -2.875, 0, -0.75
2413, -2.75, 0.125, -0.75
2414, -2.875, 0.25, -0.75
2415, -2.75, 0, -0.8125
2416, -2.75, 0.25, -0.8125
2417, -2.5, 0, -0.75
2418, -2.5, 0.25, -0.75
2419, -2.625, 0, -0.75
2420, -2.5, 0.125, -0.75
2421, -2.625, 0.25, -0.75
2422, -2.5, 0, -0.8125
2423, -2.5, 0.25, -0.8125
2424, -2.25, 0, -0.75
2425, -2.25, 0.25, -0.75
2426, -2.375, 0, -0.75
2427, -2.25, 0.125, -0.75
2428, -2.375, 0.25, -0.75
2429, -2.25, 0, -0.8125
2430, -2.25, 0.25, -0.8125
2431, -2, 0, -0.75
2432, -2, 0.25, -0.75
2433, -2.125, 0, -0.75
2434, -2, 0.125, -0.75
2435, -2.125, 0.25, -0.75
2436, -2, 0, -0.8125
2437, -2, 0.25, -0.8125
2438, -1.75, 0, -0.75
2439, -1.75, 0.25, -0.75
2440, -1.875, 0, -0.75
2441, -1.75, 0.125, -0.75
2442, -1.875, 0.25, -0.75
2443, -1.75, 0, -0.8125
2444, -1.75, 0.25, -0.8125
2445, -1.5, 0, -0.75
2446, -1.5, 0.25, -0.75
2447, -1.625, 0, -0.75
2448, -1.5, 0.125, -0.75
2449, -1.625, 0.25, -0.75
2450, -1.5, 0, -0.8125
2451, -1.5, 0.25, -0.8125
2452, -1.25, 0, -0.75
2453, -1.25, 0.25, -0.75
2454, -1.375, 0, -0.75
2455, -1.25, 0.125, -0.75
2456, -1.375, 0.25, -0.75
2457, -1.25, 0, -0.8125
2458, -1.25, 0.25, -0.8125
2459, -1, 0, -0.75
2460, -1, 0.25, -0.75
2461, -1.125, 0, -0.75
2462, -1, 0.125, -0.75
2463, -1.125, 0.25, -0.75
2464, -1, 0, -0.8125
2465, -1, 0.25, -0.8125
2466, -0.75, 0, -0.75
2467, -0.75, 0.25, -0.75
2468, -0.875, 0, -0.75
2469, -0.75, 0.125, -0.75
2470, -0.875, 0.25, -0.75
2471, -0.75, 0, -0.8125
2472, -0.75, 0.25, -0.8125
2473, -0.5, 0, -0.75
2474, -0.5, 0.25, -0.75
2475, -0.625, 0, -0.75
2476, -0.5, 0.125, -0.75
2477, -0.625, 0.25, -0.75
2478, -0.5, 0, -0.8125
2479, -0.5, 0.25, -0.8125
2480, -0.25, 0, -0.75
2481, -0.25, 0.25, -0.75
2482, -0.375, 0, -0.75
2483, -0.25, 0.125, -0.75
2484, -0.375, 0.25, -0.75
2485, -0.25, 0, -0.8125
2486, -0.25, 0.25, -0.8125
2487, 0, 0, -0.75
2488, 0, 0.25, -0.75
2489, -0.125, 0, -0.75
2490, 0, 0.125, -0.75
2491, -0.125, 0.25, -0.75
2492, 0, 0, -0.8125
2493, 0, 0.25, -0.8125
2494, 0.25, 0, -0.75
2495, 0.25, 0.25, -0.75
2496, 0.125, 0, -0.75
2497, 0.25, 0.125, -0.75
2498, 0.125, 0.25, -0.75
2499, 0.25, 0, -0.8125
2500, 0.25, 0.25, -0.8125
2501, 0.5, 0, -0.75
2502, 0.5, 0.25, -0.75
2503, 0.375, 0, -0.75
2504, 0.5, 0.125, -0.75
2505, 0.375, 0.25, -0.75
2506, 0.5, 0, -0.8125
2507, 0.5, 0.25, -0.8125
2508, 0.75, 0, -0.75
2509, 0.75, 0.25, -0.75
2510, 0.625, 0, -0.75
2511, 0.75, 0.125, -0.75
2512, 0.625, 0.25, -0.75
2513, 0.75, 0, -0.8125
2514, 0.75, 0.25, -0.8125
2515, 1, 0, -0.75
2516, 1, 0.25, -0.75
2517, 0.875, 0, -0.75
2518, 1, 0.125, -0.75
2519, 0.875, 0.25, -0.75
2520, 1, 0, -0.8125
2521, 1, 0.25, -0.8125
2522, 1.25, 0, -0.75
2523, 1.25, 0.25, -0.75
2524, 1.125, 0, -0.75
2525, 1.25, 0.125, -0.75
2526, 1.125, 0.25, -0.75
2527, 1.25, 0, -0.8125
2528, 1.25, 0.25, -0.8125
2529, 1.5, 0, -0.75
2530, 1.5, 0.25, -0.75
2531, 1.375, 0, -0.75
2532, 1.5, 0.125, -0.75
2533, 1.375, 0.25, -0.75
2534, 1.5, 0, -0.8125
2535, 1.5, 0.25, -0.8125
2536, 1.75, 0, -0.75
2537, 1.75, 0.25, -0.75
2538, 1.625, 0, -0.75
2539, 1.75, 0.125, -0.75
2540, 1.625, 0.25, -0.75
2541, 1.75, 0, -0.8125
2542, 1.75, 0.25, -0.8125
2543, 2, 0, -0.75
2544, 2, 0.25, -0.75
2545, 1.875, 0, -0.75
2546, 2, 0.125, -0.75
2547, 1.875, 0.25, -0.75
2548, 2, 0, -0.8125
2549, 2, 0.25, -0.8125
2550, 2.25, 0, -0.75
2551, 2.25, 0.25, -0.75
2552, 2.125, 0, -0.75
2553, 2.25, 0.125, -0.75
2554, 2.125, 0.25, -0.75
2555, 2.25, 0, -0.8125
2556, 2.25, 0.25, -0.8125
2557, 2.5, 0, -0.75
2558, 2.5, 0.25, -0.75
2559, 2.375, 0, -0.75
2560, 2.5, 0.125, -0.75
2561, 2.375, 0.25, -0.75
2562, 2.5, 0, -0.8125
2563, 2.5, 0.25, -0.8125
2564, 2.75, 0, -0.75
2565, 2.75, 0.25, -0.75
2566, 2.625, 0, -0.75
2567, 2.75, 0.125, -0.75
2568, 2.625, 0.25, -0.75
2569, 2.75, 0, -0.8125
2570, 2.75, 0.25, -0.8125
2571, 3, 0, -0.75
2572, 3, 0.25, -0.75
2573, 2.875, 0, -0.75
2574, 3, 0.125, -0.75
2575, 2.875, 0.25, -0.75
2576, 3, 0, -0.8125
2577, 3, 0.25, -0.8125
2578, 3.25, 0, -0.75
2579, 3.25, 0.25, -0.75
2580, 3.125, 0, -0.75
2581, 3.25, 0.125, -0.75
2582, 3.125, 0.25, -0.75
2583, 3.25, 0, -0.8125
2584, 3.25, 0.25, -0.8125
2585, 3.5, 0, -0.75
2586, 3.5, 0.25, -0.75
2587, 3.375, 0, -0.75
2588, 3.5, 0.125, -0.75
2589, 3.375, 0.25, -0.75
2590, 3.5, 0, -0.8125
2591, 3.5, 0.25, -0.8125
2592, 3.75, 0, -0.75
2593, 3.75, 0.25, -0.75
2594, 3.625, 0, -0.75
2595, 3.75, 0.125, -0.75
2596, 3.625, 0.25, -0.75
2597, 3.75, 0, -0.8125
2598, 3.75, 0.25, -0.8125
2599, 4, 0, -0.75
2600, 4, 0.25, -0.75
2601, 3.875, 0, -0.75
2602, 4, 0.125, -0.75
2603, 3.875, 0.25, -0.75
2604, 4, 0, -0.8125
2605, 4, 0.25, -0.8125
2606, 4.25, 0, -0.75
2607, 4.25, 0.25, -0.75
2608, 4.125, 0, -0.75
2609, 4.25, 0.125, -0.75
2610, 4.125, 0.25, -0.75
2611, 4.25, 0, -0.8125
2612, 4.25, 0.25, -0.8125
2613, 4.5, 0, -0.75
2614, 4.5, 0.25, -0.75
2615, 4.375, 0, -0.75
2616, 4.5, 0.125, -0.75
2617, 4.375, 0.25, -0.75
2618, 4.5, 0, -0.8125
2619, 4.5, 0.25, -0.8125
2620, 4.75, 0, -0.75
2621, 4.75, 0.25, -0.75
2622, 4.625, 0, -0.75
2623, 4.75, 0.125, -0.75
2624, 4.625, 0.25, -0.75
2625, 4.75, 0, -0.8125
2626, 4.75, 0.25, -0.8125
2627, 5, 0, -0.75
2628, 5, 0.25, -0.75
2629, 4.875, 0, -0.75
2630, 5, 0.125, -0.75
2631, 4.875, 0.25, -0.75
2632, 5, 0, -0.8125
2633, 5, 0.25, -0.8125
2634, 5.25, 0, -0.75
2635, 5.25, 0.25, -0.75
2636, 5.125, 0, -0.75
2637, 5.25, 0.125, -0.75
2638, 5.125, 0.25, -0.75
2639, 5.25, 0, -0.8125
2640, 5.25, 0.25, -0.8125
2641, 5.5, 0, -0.75
2642, 5.5, 0.25, -0.75
2643, 5.375, 0, -0.75
2644, 5.5, 0.125, -0.75
2645, 5.375, 0.25, -0.75
2646, 5.5, 0, -0.8125
2647, 5.5, 0.25, -0.8125
2648, 5.75, 0, -0.75
2649, 5.75, 0.25, -0.75
2650, 5.625, 0, -0.75
2651, 5.75, 0.125, -0.75
2652, 5.625, 0.25, -0.75
2653, 5.75, 0, -0.8125
2654, 5.75, 0.25, -0.8125
2655, 6, 0, -0.75
2656, 6, 0.25, -0.75
2657, 5.875, 0, -0.75
2658, 6, 0.125, -0.75
2659, 5.875, 0.25, -0.75
2660, 6, 0, -0.8125
2661, 6, 0.25, -0.8125
2662, 6.25, 0, -0.75
2663, 6.25, 0.25, -0.75
2664, 6.125, 0, -0.75
2665, 6.25, 0.125, -0.75
2666, 6.125, 0.25, -0.75
2667, 6.25, 0, -0.8125
2668, 6.25, 0.25, -0.8125
2669, 6.5, 0, -0.75
2670, 6.5, 0.25, -0.75
2671, 6.375, 0, -0.75
2672, 6.5, 0.125, -0.75
2673, 6.375, 0.25, -0.75
2674, 6.5, 0, -0.8125
2675, 6.5, 0.25, -0.8125
2676, 6.75, 0, -0.75
2677, 6.75, 0.25, -0.75
2678, 6.625, 0, -0.75
2679, 6.75, 0.125, -0.75
2680, 6.625, 0.25, -0.75
2681, 6.75, 0, -0.8125
2682, 6.75, 0.25, -0.8125
2683, 7, 0, -0.75
2684, 7, 0.25, -0.75
2685, 6.875, 0, -0.75
2686, 7, 0.125, -0.75
2687, 6.875, 0.25, -0.75
2688, 7, 0, -0.8125
2689, 7, 0.25, -0.8125
2690, 7.25, 0, -0.75
2691, 7.25, 0.25, -0.75
2692, 7.125, 0, -0.75
2693, 7.25, 0.125, -0.75
2694, 7.125, 0.25, -0.75
2695, 7.25, 0, -0.8125
2696, 7.25, 0.25, -0.8125
2697, 7.5, 0, -0.75
2698, 7.5, 0.25, -0.75
2699, 7.375, 0, -0.75
2700, 7.5, 0.125, -0.75
2701, 7.375, 0.25, -0.75
2702, 7.5, 0, -0.8125
2703, 7.5, 0.25, -0.8125
2704, 7.75, 0, -0.75
2705, 7.75, 0.25, -0.75
2706, 7.625, 0, -0.75
2707, 7.75, 0.125, -0.75
2708, 7.625, 0.25, -0.75
2709, 7.75, 0, -0.8125
2710, 7.75, 0.25, -0.8125
2711, 8, 0, -0.75
2712, 8, 0.25, -0.75
2713, 7.875, 0, -0.75
2714, 8, 0.125, -0.75
2715, 7.875, 0.25, -0.75
2716, 8, 0, -0.8125
2717, 8, 0.25, -0.8125
2718, 8.25, 0, -0.75
2719, 8.25, 0.25, -0.75
2720, 8.125, 0, -0.75
2721, 8.25, 0.125, -0.75
2722, 8.125, 0.25, -0.75
2723, 8.25, 0, -0.8125
2724, 8.25, 0.25, -0.8125
2725, 8.5, 0, -0.75
2726, 8.5, 0.25, -0.75
2727, 8.375, 0, -0.75
2728, 8.5, 0.125, -0.75
2729, 8.375, 0.25, -0.75
2730, 8.5, 0, -0.8125
2731, 8.5, 0.25, -0.8125
2732, 8.75, 0, -0.75
2733, 8.75, 0.25, -0.75
2734, 8.625, 0, -0.75
2735, 8.75, 0.125, -0.75
2736, 8.625, 0.25, -0.75
2737, 8.75, 0, -0.8125
2738, 8.75, 0.25, -0.8125
2739, 9, 0, -0.75
2740, 9, 0.25, -0.75
2741, 8.875, 0, -0.75
2742, 9, 0.125, -0.75
2743, 8.875, 0.25, -0.75
2744, 9, 0, -0.8125
2745, 9, 0.25, -0.8125
2746, 9.25, 0, -0.75
2747, 9.25, 0.25, -0.75
2748, 9.125, 0, -0.75
2749, 9.25, 0.125, -0.75
2750, 9.125, 0.25, -0.75
2751, 9.25, 0, -0.8125
2752, 9.25, 0.25, -0.8125
2753, 9.5, 0, -0.75
2754, 9.5, 0.25, -0.75
2755, 9.375, 0, -0.75
2756, 9.5, 0.125, -0.75
2757, 9.375, 0.25, -0.75
2758, 9.5, 0, -0.8125
2759, 9.5, 0.25, -0.8125
2760, 9.75, 0, -0.75
2761, 9.75, 0.25, -0.75
2762, 9.625, 0, -0.75
2763, 9.75, 0.125, -0.75
2764, 9.625, 0.25, -0.75
2765, 9.75, 0, -0.8125
2766, 9.75, 0.25, -0.8125
2767, 10, 0, -0.75
2768, 10, 0.25, -0.75
2769, 9.875, 0, -0.75
2770, 10, 0.125, -0.75
2771, 9.875, 0.25, -0.75
2772, 10, 0, -0.8125
2773, 10, 0.25, -0.8125
2774, 10.25, 0, -0.75
2775, 10.25, 0.25, -0.75
2776, 10.125, 0, -0.75
2777, 10.25, 0.125, -0.75
2778, 10.125, 0.25, -0.75
2779, 10.25, 0, -0.8125
2780, 10.25, 0.25, -0.8125
2781, 10.5, 0, -0.75
2782, 10.5, 0.25, -0.75
2783, 10.375, 0, -0.75
2784, 10.5, 0.125, -0.75
2785, 10.375, 0.25, -0.75
2786, 10.5, 0, -0.8125
2787, 10.5, 0.25, -0.8125
2788, 10.75, 0, -0.75
2789, 10.75, 0.25, -0.75
2790, 10.625, 0, -0.75
2791, 10.75, 0.125, -0.75
2792, 10.625, 0.25, -0.75
2793, 10.75, 0, -0.8125
2794, 10.75, 0.25, -0.8125
2795, 11, 0, -0.75
2796, 11, 0.25, -0.75
2797, 10.875, 0, -0.75
2798, 11, 0.125, -0.75
2799, 10.875, 0.25, -0.75
2800, 11, 0, -0.8125
2801, 11, 0.25, -0.8125
2802, 11.25, 0, -0.75
2803, 11.25, 0.25, -0.75
2804, 11.125, 0, -0.75
2805, 11.25, 0.125, -0.75
2806, 11.125, 0.25, -0.75
2807, 11.25, 0, -0.8125
2808, 11.25, 0.25, -0.8125
2809, 11.5, 0, -0.75
2810, 11.5, 0.25, -0.75
2811, 11.375, 0, -0.75
2812, 11.5, 0.125, -0.75
2813, 11.375, 0.25, -0.75
2814, 11.5, 0, -0.8125
2815, 11.5, 0.25, -0.8125
2816, 11.75, 0, -0.75
2817, 11.75, 0.25, -0.75
2818, 11.625, 0, -0.75
2819, 11.75, 0.125, -0.75
2820, 11.625, 0.25, -0.75
2821, 11.75, 0, -0.8125
2822, 11.75, 0.25, -0.8125
2823, 12, 0, -0.75
2824, 12, 0.25, -0.75
2825, 11.875, 0, -0.75
2826, 12, 0.125, -0.75
2827, 11.875, 0.25, -0.75
2828, 12, 0, -0.8125
2829, 12, 0.25, -0.8125
2830, 12.25, 0, -0.75
2831, 12.25, 0.25, -0.75
2832, 12.125, 0, -0.75
2833, 12.25, 0.125, -0.75
2834, 12.125, 0.25, -0.75
2835, 12.25, 0, -0.8125
2836, 12.25, 0.25, -0.8125
2837, 12.5, 0, -0.75
2838, 12.5, 0.25, -0.75
2839, 12.375, 0, -0.75
2840, 12.5, 0.125, -0.75
2841, 12.375, 0.25, -0.75
2842, 12.5, 0, -0.8125
2843, 12.5, 0.25, -0.8125
2844, 12.75, 0, -0.75
2845, 12.75, 0.25, -0.75
2846, 12.625, 0, -0.75
2847, 12.75, 0.125, -0.75
2848, 12.625, 0.25, -0.75
2849, 12.75, 0, -0.8125
2850, 12.75, 0.25, -0.8125
2851, 13, 0, -0.75
2852, 13, 0.25, -0.75
2853, 12.875, 0, -0.75
2854, 13, 0.125, -0.75
2855, 12.875, 0.25, -0.75
2856, 13, 0, -0.8125
2857, 13, 0.25, -0.8125
2858, 13.25, 0, -0.75
2859, 13.25, 0.25, -0.75
2860, 13.125, 0, -0.75
2861, 13.25, 0.125, -0.75
2862, 13.125, 0.25, -0.75
2863, 13.25, 0, -0.8125
2864, 13.25, 0.25, -0.8125
2865, 13.5, 0, -0.75
2866, 13.5, 0.25, -0.75
2867, 13.375, 0, -0.75
2868, 13.5, 0.125, -0.75
2869, 13.375, 0.25, -0.75
2870, 13.5, 0, -0.8125
2871, 13.5, 0.25, -0.8125
2872, 13.75, 0, -0.75
2873, 13.75, 0.25, -0.75
2874, 13.625, 0, -0.75
2875, 13.75, 0.125, -0.75
2876, 13.625, 0.25, -0.75
2877, 13.75, 0, -0.8125
2878, 13.75, 0.25, -0.8125
2879, 14, 0, -0.75
2880, 14, 0.25, -0.75
2881, 13.875, 0, -0.75
2882, 14, 0.125, -0.75
2883, 13.875, 0.25, -0.75
2884, 14, 0, -0.8125
2885, 14, 0.25, -0.8125
2886, 14.25, 0, -0.75
2887, 14.25, 0.25, -0.75
2888, 14.125, 0, -0.75
2889, 14.25, 0.125, -0.75
2890, 14.125, 0.25, -0.75
2891, 14.25, 0, -0.8125
2892, 14.25, 0.25, -0.8125
2893, 14.5, 0, -0.75
2894, 14.5, 0.25, -0.75
2895, 14.375, 0, -0.75
2896, 14.5, 0.125, -0.75
2897, 14.375, 0.25, -0.75
2898, 14.5, 0, -0.8125
2899, 14.5, 0.25, -0.8125
2900, 14.75, 0, -0.75
2901, 14.75, 0.25, -0.75
2902, 14.625, 0, -0.75
2903, 14.75, 0.125, -0.75
2904, 14.625, 0.25, -0.75
2905, 14.75, 0, -0.8125
2906, 14.75, 0.25, -0.8125
2907, 15, 0, -0.75
2908, 15, 0.25, -0.75
2909, 14.875, 0, -0.75
2910, 15, 0.125, -0.75
2911, 14.875, 0.25, -0.75
2912, 15, 0, -0.8125
2913, 15, 0.25, -0.8125
2914, 15.25, 0, -0.75
2915, 15.25, 0.25, -0.75
2916, 15.125, 0, -0.75
2917, 15.25, 0.125, -0.75
2918, 15.125, 0.25, -0.75
2919, 15.25, 0, -0.8125
2920, 15.25, 0.25, -0.8125
2921, 15.5, 0, -0.75
2922, 15.5, 0.25, -0.75
2923, 15.375, 0, -0.75
2924, 15.5, 0.125, -0.75
2925, 15.375, 0.25, -0.75
2926, 15.5, 0, -0.8125
2927, 15.5, 0.25, -0.8125
2928, 15.75, 0, -0.75
2929, 15.75, 0.25, -0.75
2930, 15.625, 0, -0.75
2931, 15.75, 0.125, -0.75
2932, 15.625, 0.25, -0.75
2933, 15.75, 0, -0.8125
2934, 15.75, 0.25, -0.8125
2935, 16, 0, -0.75
2936, 16, 0.25, -0.75
2937, 15.875, 0, -0.75
2938, 16, 0.125, -0.75
2939, 15.875, 0.25, -0.75
2940, 16, 0, -0.8125
2941, 16, 0.25, -0.8125
2942, 16.25, 0, -0.75
2943, 16.25, 0.25, -0.75
2944, 16.125, 0, -0.75
2945, 16.25, 0.125, -0.75
2946, 16.125, 0.25, -0.75
2947, 16.25, 0, -0.8125
2948, 16.25, 0.25, -0.8125
2949, 16.5, 0, -0.75
2950, 16.5, 0.25, -0.75
2951, 16.375, 0, -0.75
2952, 16.5, 0.125, -0.75
2953, 16.375, 0.25, -0.75
2954, 16.5, 0, -0.8125
2955, 16.5, 0.25, -0.8125
2956, 16.75, 0, -0.75
2957, 16.75, 0.25, -0.75
2958, 16.625, 0, -0.75
2959, 16.75, 0.125, -0.75
2960, 16.625, 0.25, -0.75
2961, 16.75, 0, -0.8125
2962, 16.75, 0.25, -0.8125
2963, 17, 0, -0.75
2964, 17, 0.25, -0.75
2965, 16.875, 0, -0.75
2966, 17, 0.125, -0.75
2967, 16.875, 0.25, -0.75
2968, 17, 0, -0.8125
2969, 17, 0.25, -0.8125
2970, 17.25, 0, -0.75
2971, 17.25, 0.25, -0.75
2972, 17.125, 0, -0.75
2973, 17.25, 0.125, -0.75
2974, 17.125, 0.25, -0.75
2975, 17.25, 0, -0.8125
2976, 17.25, 0.25, -0.8125
2977, 17.5, 0, -0.75
2978, 17.5, 0.25, -0.75
2979, 17.375, 0, -0.75
2980, 17.5, 0.125, -0.75
2981, 17.375, 0.25, -0.75
2982, 17.5, 0, -0.8125
2983, 17.5, 0.25, -0.8125
2984, 17.75, 0, -0.75
2985, 17.75, 0.25, -0.75
2986, 17.625, 0, -0.75
2987, 17.75, 0.125, -0.75
2988, 17.625, 0.25, -0.75
2989, 17.75, 0, -0.8125
2990, 17.75, 0.25, -0.8125
2991, 18, 0, -0.75
2992, 18, 0.25, -0.75
2993, 17.875, 0, -0.75
2994, 18, 0.125, -0.75
2995, 17.875, 0.25, -0.75
2996, 18, 0, -0.8125
2997, 18, 0.25, -0.8125
2998, 18.25, 0, -0.75
2999, 18.25, 0.25, -0.75
3000, 18.125, 0, -0.75
3001, 18.25, 0.125, -0.75
3002, 18.125, 0.25, -0.75
3003, 18.25, 0, -0.8125
3004, 18.25, 0.25, -0.8125
3005, 18.5, 0, -0.75
3006, 18.5, 0.25, -0.75
3007, 18.375, 0, -0.75
3008, 18.5, 0.125, -0.75
3009, 18.375, 0.25, -0.75
3010, 18.5, 0, -0.8125
3011, 18.5, 0.25, -0.8125
3012, 18.75, 0, -0.75
3013, 18.75, 0.25, -0.75
3014, 18.625, 0, -0.75
3015, 18.75, 0.125, -0.75
3016, 18.625, 0.25, -0.75
3017, 18.75, 0, -0.8125
3018, 18.75, 0.25, -0.8125
3019, 19, 0, -0.75
3020, 19, 0.25, -0.75
3021, 18.875, 0, -0.75
3022, 19, 0.125, -0.75
3023, 18.875, 0.25, -0.75
3024, 19, 0, -0.8125
3025, 19, 0.25, -0.8125
3026, 19.25, 0, -0.75
3027, 19.25, 0.25, -0.75
3028, 19.125, 0, -0.75
3029, 19.25, 0.125, -0.75
3030, 19.125, 0.25, -0.75
3031, 19.25, 0, -0.8125
3032, 19.25, 0.25, -0.8125
3033, 19.5, 0, -0.75
3034, 19.5, 0.25, -0.75
3035, 19.375, 0, -0.75
3036, 19.5, 0.125, -0.75
3037, 19.375, 0.25, -0.75
3038, 19.5, 0, -0.8125
3039, 19.5, 0.25, -0.8125
3040, 19.75, 0, -0.75
3041, 19.75, 0.25, -0.75
3042, 19.625, 0, -0.75
3043, 19.75, 0.125, -0.75
3044, 19.625, 0.25, -0.75
3045, 19.75, 0, -0.8125
3046, 19.75, 0.25, -0.8125
3047, 20, 0, -0.75
3048, 20, 0.25, -0.75
3049, 19.875, 0, -0.75
3050, 20, 0.125, -0.75
3051, 19.875, 0.25, -0.75
3052, 20, 0, -0.8125
3053, 20, 0.25, -0.8125
3054, -20, 0, -0.625
3055, -19.75, 0, -0.625
3056, -19.75, 0.25, -0.625
3057, -20, 0.25, -0.625
3058, -19.875, 0, -0.625
3059, -19.75, 0.125, -0.625
3060, -19.875, 0.25, -0.625
3061, -20, 0.125, -0.625
3062, -20, 0, -0.6875
3063, -19.75, 0, -0.6875
3064, -19.75, 0.25, -0.6875
3065, -20, 0.25, -0.6875
3066, -19.5, 0, -0.625
3067, -19.5, 0.25, -0.625
3068, -19.625, 0, -0.625
3069, -19.5, 0.125, -0.625
3070, -19.625, 0.25, -0.625
3071, -19.5, 0, -0.6875
3072, -19.5, 0.25, -0.6875
3073, -19.25, 0, -0.625
3074, -19.25, 0.25, -0.625
3075, -19.375, 0, -0.625
3076, -19.25, 0.125, -0.625
3077, -19.375, 0.25, -0.625
3078, -19.25, 0, -0.6875
3079, -19.25, 0.25, -0.6875
3080, -19, 0, -0.625
3081, -19, 0.25, -0.625
3082, -19.125, 0, -0.625
3083, -19, 0.125, -0.625
3084, -19.125, 0.25, -0.625
3085, -19, 0, -0.6875
3086, -19, 0.25, -0.6875
3087, -18.75, 0, -0.625
3088, -18.75, 0.25, -0.625
3089, -18.875, 0, -0.625
3090, -18.75, 0.125, -0.625
3091, -18.875, 0.25, -0.625
3092, -18.75, 0, -0.6875
3093, -18.75, 0.25, -0.6875
3094, -18.5, 0, -0.625
3095, -18.5, 0.25, -0.625
3096, -18.625, 0, -0.625
3097, -18.5, 0.125, -0.625
3098, -18.625, 0.25, -0.625
3099, -18.5, 0, -0.6875
3100, -18.5, 0.25, -0.6875
3101, -18.25, 0, -0.625
3102, -18.25, 0.25, -0.625
3103, -18.375, 0, -0.625
3104, -18.25, 0.125, -0.625
3105, -18.375, 0.25, -0.625
3106, -18.25, 0, -0.6875
3107, -18.25, 0.25, -0.6875
3108, -18, 0, -0.625
3109, -18, 0.25, -0.625
3110, -18.125, 0, -0.625
3111, -18, 0.125, -0.625
3112, -18.125, 0.25, -0.625
3113, -18, 0, -0.6875
3114, -18, 0.25, -0.6875
3115, -17.75, 0, -0.625
3116, -17.75, 0.25, -0.625
3117, -17.875, 0, -0.625
3118, -17.75, 0.125, -0.625
3119, -17.875, 0.25, -0.625
3120, -17.75, 0, -0.6875
3121, -17.75, 0.25, -0.6875
3122, -17.5, 0, -0.625
3123, -17.5, 0.25, -0.625
3124, -17.625, 0, -0.625
3125, -17.5, 0.125, -0.625
3126, -17.625, 0.25, -0.625
3127, -17.5, 0, -0.6875
3128, -17.5, 0.25, -0.6875
3129, -17.25, 0, -0.625
3130, -17.25, 0.25, -0.625
3131, -17.375, 0, -0.625
3132, -17.25, 0.125, -0.625
3133, -17.375, 0.25, -0.625
3134, -17.25, 0, -0.6875
3135, -17.25, 0.25, -0.6875
3136, -17, 0, -0.625
3137, -17, 0.25, -0.625
3138, -17.125, 0, -0.625
3139, -17, 0.125, -0.625
3140, -17.125, 0.25, -0.625
3141, -17, 0, -0.6875
3142, -17, 0.25, -0.6875
3143, -16.75, 0, -0.625
3144, -16.75, 0.25, -0.625
3145, -16.875, 0, -0.625
3146, -16.75, 0.125, -0.625
3147, -16.875, 0.25, -0.625
3148, -16.75, 0, -0.6875
3149, -16.75, 0.25, -0.6875
3150, -16.5, 0, -0.625
3151, -16.5, 0.25, -0.625
3152, -16.625, 0, -0.625
3153, -16.5, 0.125, -0.625
3154, -16.625, 0.25, -0.625
3155, -16.5, 0, -0.6875
3156, -16.5, 0.25, -0.6875
3157, -16.25, 0, -0.625
3158, -16.25, 0.25, -0.625
3159, -16.375, 0, -0.625
3160, -16.25, 0.125, -0.625
3161, -16.375, 0.25, -0.625
3162, -16.25, 0, -0.6875
3163, -16.25, 0.25, -0.6875
3164, -16, 0, -0.625
3165, -16, 0.25, -0.625
3166, -16.125, 0, -0.625
3167, -16, 0.125, -0.625
3168, -16.125, 0.25, -0.625
3169, -16, 0, -0.6875
3170, -16, 0.25, -0.6875
3171, -15.75, 0, -0.625
3172, -15.75, 0.25, -0.625
3173, -15.875, 0, -0.625
3174, -15.75, 0.125, -0.625
3175, -15.875, 0.25, -0.625
3176, -15.75, 0, -0.6875
3177, -15.75, 0.25, -0.6875
3178, -15.5, 0, -0.625
3179, -15.5, 0.25, -0.625
3180, -15.625, 0, -0.625
3181, -15.5, 0.125, -0.625
3182, -15.625, 0.25, -0.625
3183, -15.5, 0, -0.6875
3184, -15.5, 0.25, -0.6875
3185, -15.25, 0, -0.625
3186, -15.25, 0.25, -0.625
3187, -15.375, 0, -0.625
3188, -15.25, 0.125, -0.625
3189, -15.375, 0.25, -0.625
3190, -15.25, 0, -0.6875
3191, -15.25, 0.25, -0.6875
3192, -15, 0, -0.625
3193, -15, 0.25, -0.625
3194, -15.125, 0, -0.625
3195, -15, 0.125, -0.625
3196, -15.125, 0.25, -0.625
3197, -15, 0, -0.6875
3198, -15, 0.25, -0.6875
3199, -14.75, 0, -0.625
3200, -14.75, 0.25, -0.625
3201, -14.875, 0, -0.625
3202, -14.75, 0.125, -0.625
3203, -14.875, 0.25, -0.625
3204, -14.75, 0, -0.6875
3205, -14.75, 0.25, -0.6875
3206, -14.5, 0, -0.625
3207, -14.5, 0.25, -0.625
3208, -14.625, 0, -0.625
3209, -14.5, 0.125, -0.625
3210, -14.625, 0.25, -0.625
3211, -14.5, 0, -0.6875
3212, -14.5, 0.25, -0.6875
3213, -14.25, 0, -0.625
3214, -14.25, 0.25, -0.625
3215, -14.375, 0, -0.625
3216, -14.25, 0.125, -0.625
3217, -14.375, 0.25, -0.625
3218, -14.25, 0, -0.6875
3219, -14.25, 0.25, -0.6875
3220, -14, 0, -0.625
3221, -14, 0.25, -0.625
3222, -14.125, 0, -0.625
3223, -14, 0.125, -0.625
3224, -14.125, 0.25, -0.625
3225, -14, 0, -0.6875
3226, -14, 0.25, -0.6875
3227, -13.75, 0, -0.625
3228, -13.75, 0.25, -0.625
3229, -13.875, 0, -0.625
3230, -13.75, 0.125, -0.625
3231, -13.875, 0.25, -0.625
3232, -13.75, 0, -0.6875
3233, -13.75, 0.25, -0.6875
3234, -13.5, 0, -0.625
3235, -13.5, 0.25, -0.625
3236, -13.625, 0, -0.625
3237, -13.5, 0.125, -0.625
3238, -13.625, 0.25, -0.625
3239, -13.5, 0, -0.6875
3240, -13.5, 0.25, -0.6875
3241, -13.25, 0, -0.625
3242, -13.25, 0.25, -0.625
3243, -13.375, 0, -0.625
3244, -13.25, 0.125, -0.625
3245, -13.375, 0.25, -0.625
3246, -13.25, 0, -0.6875
3247, -13.25, 0.25, -0.6875
3248, -13, 0, -0.625
3249, -13, 0.25, -0.625
3250, -13.125, 0, -0.625
3251, -13, 0.125, -0.625
3252, -13.125, 0.25, -0.625
3253, -13, 0, -0.6875
3254, -13, 0.25, -0.6875
3255, -12.75, 0, -0.625
3256, -12.75, 0.25, -0.625
3257, -12.875, 0, -0.625
3258, -12.75, 0.125, -0.625
3259, -12.875, 0.25, -0.625
3260, -12.75, 0, -0.6875
3261, -12.75, 0.25, -0.6875
3262, -12.5, 0, -0.625
3263, -12.5, 0.25, -0.625
3264, -12.625, 0, -0.625
3265, -12.5, 0.125, -0.625
3266, -12.625, 0.25, -0.625
3267, -12.5, 0, -0.6875
3268, -12.5, 0.25, -0.6875
3269, -12.25, 0, -0.625
3270, -12.25, 0.25, -0.625
3271, -12.375, 0, -0.625
3272, -12.25, 0.125, -0.625
3273, -12.375, 0.25, -0.625
3274, -12.25, 0, -0.6875
3275, -12.25, 0.25, -0.6875
3276, -12, 0, -0.625
3277, -12, 0.25, -0.625
3278, -12.125, 0, -0.625
3279, -12, 0.125, -0.625
3280, -12.125, 0.25, -0.625
3281, -12, 0, -0.6875
3282, -12, 0.25, -0.6875
3283, -11.75, 0, -0.625
3284, -11.75, 0.25, -0.625
3285, -11.875, 0, -0.625
3286, -11.75, 0.125, -0.625
3287, -11.875, 0.25, -0.625
3288, -11.75, 0, -0.6875
3289, -11.75, 0.25, -0.6875
3290, -11.5, 0, -0.625
3291, -11.5, 0.25, -0.625
3292, -11.625, 0, -0.625
3293, -11.5, 0.125, -0.625
3294, -11.625, 0.25, -0.625
3295, -11.5, 0, -0.6875
3296, -11.5, 0.25, -0.6875
3297, -11.25, 0, -0.625
3298, -11.25, 0.25, -0.625
3299, -11.375, 0, -0.625
3300, -11.25, 0.125, -0.625
3301, -11.375, 0.25, -0.625
3302, -11.25, 0, -0.6875
3303, -11.25, 0.25, -0.6875
3304, -11, 0, -0.625
3305, -11, 0.25, -0.625
3306, -11.125, 0, -0.625
3307, -11, 0.125, -0.625
3308, -11.125, 0.25, -0.625
3309, -11, 0, -0.6875
3310, -11, 0.25, -0.6875
3311, -10.75, 0, -0.625
3312, -10.75, 0.25, -0.625
3313, -10.875, 0, -0.625
3314, -10.75, 0.125, -0.625
3315, -10.875, 0.25, -0.625
3316, -10.75, 0, -0.6875
3317, -10.75, 0.25, -0.6875
3318, -10.5, 0, -0.625
3319, -10.5, 0.25, -0.625
3320, -10.625, 0, -0.625
3321, -10.5, 0.125, -0.625
3322, -10.625, 0.25, -0.625
3323, -10.5, 0, -0.6875
3324, -10.5, 0.25, -0.6875
3325, -10.25, 0, -0.625
3326, -10.25, 0.25, -0.625
3327, -10.375, 0, -0.625
3328, -10.25, 0.125, -0.625
3329, -10.375, 0.25, -0.625
3330, -10.25, 0, -0.6875
3331, -10.25, 0.25, -0.6875
3332, -10, 0, -0.625
3333, -10, 0.25, -0.625
3334, -10.125, 0, -0.625
3335, -10, 0.125, -0.625
3336, -10.125, 0.25, -0.625
3337, -10, 0, -0.6875
3338, -10, 0.25, -0.6875
3339, -9.75, 0, -0.625
3340, -9.75, 0.25, -0.625
3341, -9.875, 0, -0.625
3342, -9.75, 0.125, -0.625
3343, -9.875, 0.25, -0.625
3344, -9.75, 0, -0.6875
3345, -9.75, 0.25, -0.6875
3346, -9.5, 0, -0.625
3347, -9.5, 0.25, -0.625
3348, -9.625, 0, -0.625
3349, -9.5, 0.125, -0.625
3350, -9.625, 0.25, -0.625
3351, -9.5, 0, -0.6875
3352, -9.5, 0.25, -0.6875
3353, -9.25, 0, -0.625
3354, -9.25, 0.25, -0.625
3355, -9.375, 0, -0.625
3356, -9.25, 0.125, -0.625
3357, -9.375, 0.25, -0.625
3358, -9.25, 0, -0.6875
3359, -9.25, 0.25, -0.6875
3360, -9, 0, -0.625
3361, -9, 0.25, -0.625
3362, -9.125, 0, -0.625
3363, -9, 0.125, -0.625
3364, -9.125, 0.25, -0.625
3365, -9, 0, -0.6875
3366, -9, 0.25, -0.6875
3367, -8.75, 0, -0.625
3368, -8.75, 0.25, -0.625
3369, -8.875, 0, -0.625
3370, -8.75, 0.125, -0.625
3371, -8.875, 0.25, -0.625
3372, -8.75, 0, -0.6875
3373, -8.75, 0.25, -0.6875
3374, -8.5, 0, -0.625
3375, -8.5, 0.25, -0.625
3376, -8.625, 0, -0.625
3377, -8.5, 0.125, -0.625
3378, -8.625, 0.25, -0.625
3379, -8.5, 0, -0.6875
3380, -8.5, 0.25, -0.6875
3381, -8.25, 0, -0.625
3382, -8.25, 0.25, -0.625
3383, -8.375, 0, -0.625
3384, -8.25, 0.125, -0.625
3385, -8.375, 0.25, -0.625
3386, -8.25, 0, -0.6875
3387, -8.25, 0.25, -0.6875
3388, -8, 0, -0.625
3389, -8, 0.25, -0.625
3390, -8.125, 0, -0.625
3391, -8, 0.125, -0.625
3392, -8.125, 0.25, -0.625
3393, -8, 0, -0.6875
3394, -8, 0.25, -0.6875
3395, -7.75, 0, -0.625
3396, -7.75, 0.25, -0.625
3397, -7.875, 0, -0.625
3398, -7.75, 0.125, -0.625
3399, -7.875, 0.25, -0.625
3400, -7.75, 0, -0.6875
3401, -7.75, 0.25, -0.6875
3402, -7.5, 0, -0.625
3403, -7.5, 0.25, -0.625
3404, -7.625, 0, -0.625
3405, -7.5, 0.125, -0.625
3406, -7.625, 0.25, -0.625
3407, -7.5, 0, -0.6875
3408, -7.5, 0.25, -0.6875
3409, -7.25, 0, -0.625
3410, -7.25, 0.25, -0.625
3411, -7.375, 0, -0.625
3412, -7.25, 0.125, -0.625
3413, -7.375, 0.25, -0.625
3414, -7.25, 0, -0.6875
3415, -7.25, 0.25, -0.6875
3416, -7, 0, -0.625
3417, -7, 0.25, -0.625
3418, -7.125, 0, -0.625
3419, -7, 0.125, -0.625
3420, -7.125, 0.25, -0.625
3421, -7, 0, -0.6875
3422, -7, 0.25, -0.6875
3423, -6.75, 0, -0.625
3424, -6.75, 0.25, -0.625
3425, -6.875, 0, -0.625
3426, -6.75, 0.125, -0.625
3427, -6.875, 0.25, -0.625
3428, -6.75, 0, -0.6875
3429, -6.75, 0.25, -0.6875
3430, -6.5, 0, -0.625
3431, -6.5, 0.25, -0.625
3432, -6.625, 0, -0.625
3433, -6.5, 0.125, -0.625
3434, -6.625, 0.25, -0.625
3435, -6.5, 0, -0.6875
3436, -6.5, 0.25, -0.6875
3437, -6.25, 0, -0.625
3438, -6.25, 0.25, -0.625
3439, -6.375, 0, -0.625
3440, -6.25, 0.125, -0.625
3441, -6.375, 0.25, -0.625
3442, -6.25, 0, -0.6875
3443, -6.25, 0.25, -0.6875
3444, -6, 0, -0.625
3445, -6, 0.25, -0.625
3446, -6.125, 0, -0.625
3447, -6, 0.125, -0.625
3448, -6.125, 0.25, -0.625
3449, -6, 0, -0.6875
3450, -6, 0.25, -0.6875
3451, -5.75, 0, -0.625
3452, -5.75, 0.25, -0.625
3453, -5.875, 0, -0.625
3454, -5.75, 0.125, -0.625
3455, -5.875, 0.25, -0.625
3456, -5.75, 0, -0.6875
3457, -5.75, 0.25, -0.6875
3458, -5.5, 0, -0.625
3459, -5.5, 0.25, -0.625
3460, -5.625, 0, -0.625
3461, -5.5, 0.125, -0.625
3462, -5.625, 0.25, -0.625
3463, -5.5, 0, -0.6875
3464, -5.5, 0.25, -0.6875
3465, -5.25, 0, -0.625
3466, -5.25, 0.25, -0.625
3467, -5.375, 0, -0.625
3468, -5.25, 0.125, -0.625
3469, -5.375, 0.25, -0.625
3470, -5.25, 0, -0.6875
3471, -5.25, 0.25, -0.6875
3472, -5, 0, -0.625
3473, -5, 0.25, -0.625
3474, -5.125, 0, -0.625
3475, -5, 0.125, -0.625
3476, -5.125, 0.25, -0.625
3477, -5, 0, -0.6875
3478, -5, 0.25, -0.6875
3479, -4.75, 0, -0.625
3480, -4.75, 0.25, -0.625
3481, -4.875, 0, -0.625
3482, -4.75, 0.125, -0.625
3483, -4.875, 0.25, -0.625
3484, -4.75, 0, -0.6875
3485, -4.75, 0.25, -0.6875
3486, -4.5, 0, -0.625
3487, -4.5, 0.25, -0.625
3488, -4.625, 0, -0.625
3489, -4.5, 0.125, -0.625
3490, -4.625, 0.25, -0.625
3491, -4.5, 0, -0.6875
3492, -4.5, 0.25, -0.6875
3493, -4.25, 0, -0.625
3494, -4.25, 0.25, -0.625
3495, -4.375, 0, -0.625
3496, -4.25, 0.125, -0.625
3497, -4.375, 0.25, -0.625
3498, -4.25, 0, -0.6875
3499, -4.25, 0.25, -0.6875
3500, -4, 0, -0.625
3501, -4, 0.25, -0.625
3502, -4.125, 0, -0.625
3503, -4, 0.125, -0.625
3504, -4.125, 0.25, -0.625
3505, -4, 0, -0.6875
3506, -4, 0.25, -0.6875
3507, -3.75, 0, -0.625
3508, -3.75, 0.25, -0.625
3509, -3.875, 0, -0.625
3510, -3.75, 0.125, -0.625
3511, -3.875, 0.25, -0.625
3512, -3.75, 0, -0.6875
3513, -3.75, 0.25, -0.6875
3514, -3.5, 0, -0.625
3515, -3.5, 0.25, -0.625
3516, -3.625, 0, -0.625
3517, -3.5, 0.125, -0.625
3518, -3.625, 0.25, -0.625
3519, -3.5, 0, -0.6875
3520, -3.5, 0.25, -0.6875
3521, -3.25, 0, -0.625
3522, -3.25, 0.25, -0.625
3523, -3.375, 0, -0.625
3524, -3.25, 0.125, -0.625
3525, -3.375, 0.25, -0.625
3526, -3.25, 0, -0.6875
3527, -3.25, 0.25, -0.6875
3528, -3, 0, -0.625
3529, -3, 0.25, -0.625
3530, -3.125, 0, -0.625
3531, -3, 0.125, -0.625
3532, -3.125, 0.25, -0.625
3533, -3, 0, -0.6875
3534, -3, 0.25, -0.6875
3535, -2.75, 0, -0.625
3536, -2.75, 0.25, -0.625
3537, -2.875, 0, -0.625
3538, -2.75, 0.125, -0.625
3539, -2.875, 0.25, -0.625
3540, -2.75, 0, -0.6875
3541, -2.75, 0.25, -0.6875
3542, -2.5, 0, -0.625
3543, -2.5, 0.25, -0.625
3544, -2.625, 0, -0.625
3545, -2.5, 0.125, -0.625
3546, -2.625, 0.25, -0.625
3547, -2.5, 0, -0.6875
3548, -2.5, 0.25, -0.6875
3549, -2.25, 0, -0.625
3550, -2.25, 0.25, -0.625
3551, -2.375, 0, -0.625
3552, -2.25, 0.125, -0.625
3553, -2.375, 0.25, -0.625
3554, -2.25, 0, -0.6875
3555, -2.25, 0.25, -0.6875
3556, -2, 0, -0.625
3557, -2, 0.25, -0.625
3558, -2.125, 0, -0.625
3559, -2, 0.125, -0.625
3560, -2.125, 0.25, -0.625
3561, -2, 0, -0.6875
3562, -2, 0.25, -0.6875
3563, -1.75, 0, -0.625
3564, -1.75, 0.25, -0.625
3565, -1.875, 0, -0.625
3566, -1.75, 0.125, -0.625
3567, -1.875, 0.25, -0.625
3568, -1.75, 0, -0.6875
3569, -1.75, 0.25, -0.6875
3570, -1.5, 0, -0.625
3571, -1.5, 0.25, -0.625
3572, -1.625, 0, -0.625
3573, -1.5, 0.125, -0.625
3574, -1.625, 0.25, -0.625
3575, -1.5, 0, -0.6875
3576, -1.5, 0.25, -0.6875
3577, -1.25, 0, -0.625
3578, -1.25, 0.25, -0.625
3579, -1.375, 0, -0.625
3580, -1.25, 0.125, -0.625
3581, -1.375, 0.25, -0.625
3582, -1.25, 0, -0.6875
3583, -1.25, 0.25, -0.6875
3584, -1, 0, -0.625
3585, -1, 0.25, -0.625
3586, -1.125, 0, -0.625
3587, -1, 0.125, -0.625
3588, -1.125, 0.25, -0.625
3589, -1, 0, -0.6875
3590, -1, 0.25, -0.6875
3591, -0.75, 0, -0.625
3592, -0.75, 0.25, -0.625
3593, -0.875, 0, -0.625
3594, -0.75, 0.125, -0.625
3595, -0.875, 0.25, -0.625
3596, -0.75, 0, -0.6875
3597, -0.75, 0.25, -0.6875
3598, -0.5, 0, -0.625
3599, -0.5, 0.25, -0.625
3600, -0.625, 0, -0.625
3601, -0.5, 0.125, -0.625
3602, -0.625, 0.25, -0.625
3603, -0.5, 0, -0.6875
3604, -0.5, 0.25, -0.6875
3605, -0.25, 0, -0.625
3606, -0.25, 0.25, -0.625
3607, -0.375, 0, -0.625
3608, -0.25, 0.125, -0.625
3609, -0.375, 0.25, -0.625
3610, -0.25, 0, -0.6875
3611, -0.25, 0.25, -0.6875
3612, 0, 0, -0.625
3613, 0, 0.25, -0.625
3614, -0.125, 0, -0.625
3615, 0, 0.125, -0.625
3616, -0.125, 0.25, -0.625
3617, 0, 0, -0.6875
3618, 0, 0.25, -0.6875
3619, 0.25, 0, -0.625
3620, 0.25, 0.25, -0.625
3621, 0.125, 0, -0.625
3622, 0.25, 0.125, -0.625
3623, 0.125, 0.25, -0.625
3624, 0.25, 0, -0.6875
3625, 0.25, 0.25, -0.6875
3626, 0.5, 0, -0.625
3627, 0.5, 0.25, -0.625
3628, 0.375, 0, -0.625
3629, 0.5, 0.125, -0.625
3630, 0.375, 0.25, -0.625
3631, 0.5, 0, -0.6875
3632, 0.5, 0.25, -0.6875
3633, 0.75, 0, -0.625
3634, 0.75, 0.25, -0.625
3635, 0.625, 0, -0.625
3636, 0.75, 0.125, -0.625
3637, 0.625, 0.25, -0.625
3638, 0.75, 0, -0.6875
3639, 0.75, 0.25, -0.6875
3640, 1, 0, -0.625
3641, 1, 0.25, -0.625
3642, 0.875, 0, -0.625
3643, 1, 0.125, -0.625
3644, 0.875, 0.25, -0.625
3645, 1, 0, -0.6875
3646, 1, 0.25, -0.6875
3647, 1.25, 0, -0.625
3648, 1.25, 0.25, -0.625
3649, 1.125, 0, -0.625
3650, 1.25, 0.125, -0.625
3651, 1.125, 0.25, -0.625
3652, 1.25, 0, -0.6875
3653, 1.25, 0.25, -0.6875
3654, 1.5, 0, -0.625
3655, 1.5, 0.25, -0.625
3656, 1.375, 0, -0.625
3657, 1.5, 0.125, -0.625
3658, 1.375, 0.25, -0.625
3659, 1.5, 0, -0.6875
3660, 1.5, 0.25, -0.6875
3661, 1.75, 0, -0.625
3662, 1.75, 0.25, -0.625
3663, 1.625, 0, -0.625
3664, 1.75, 0.125, -0.625
3665, 1.625, 0.25, -0.625
3666, 1.75, 0, -0.6875
3667, 1.75, 0.25, -0.6875
3668, 2, 0, -0.625
3669, 2, 0.25, -0.625
3670, 1.875, 0, -0.625
3671, 2, 0.125, -0.625
3672, 1.875, 0.25, -0.625
3673, 2, 0, -0.6875
3674, 2, 0.25, -0.6875
3675, 2.25, 0, -0.625
3676, 2.25, 0.25, -0.625
3677, 2.125, 0, -0.625
3678, 2.25, 0.125, -0.625
3679, 2.125, 0.25, -0.625
3680, 2.25, 0, -0.6875
3681, 2.25, 0.25, -0.6875
3682, 2.5, 0, -0.625
3683, 2.5, 0.25, -0.625
3684, 2.375, 0, -0.625
3685, 2.5, 0.125, -0.625
3686, 2.375, 0.25, -0.625
3687, 2.5, 0, -0.6875
3688, 2.5, 0.25, -0.6875
3689, 2.75, 0, -0.625
3690, 2.75, 0.25, -0.625
3691, 2.625, 0, -0.625
3692, 2.75, 0.125, -0.625
3693, 2.625, 0.25, -0.625
3694, 2.75, 0, -0.6875
3695, 2.75, 0.25, -0.6875
3696, 3, 0, -0.625
3697, 3, 0.25, -0.625
3698, 2.875, 0, -0.625
3699, 3, 0.125, -0.625
3700, 2.875, 0.25, -0.625
3701, 3, 0, -0.6875
3702, 3, 0.25, -0.6875
3703, 3.25, 0, -0.625
3704, 3.25, 0.25, -0.625
3705, 3.125, 0, -0.625
3706, 3.25, 0.125, -0.625
3707, 3.125, 0.25, -0.625
3708, 3.25, 0, -0.6875
3709, 3.25, 0.25, -0.6875
3710, 3.5, 0, -0.625
3711, 3.5, 0.25, -0.625
3712, 3.375, 0, -0.625
3713, 3.5, 0.125, -0.625
3714, 3.375, 0.25, -0.625
3715, 3.5, 0, -0.6875
3716, 3.5, 0.25, -0.6875
3717, 3.75, 0, -0.625
3718, 3.75, 0.25, -0.625
3719, 3.625, 0, -0.625
3720, 3.75, 0.125, -0.625
3721, 3.625, 0.25, -0.625
3722, 3.75, 0, -0.6875
3723, 3.75, 0.25, -0.6875
3724, 4, 0, -0.625
3725, 4, 0.25, -0.625
3726, 3.875, 0, -0.625
3727, 4, 0.125, -0.625
3728, 3.875, 0.25, -0.625
3729, 4, 0, -0.6875
3730, 4, 0.25, -0.6875
3731, 4.25, 0, -0.625
3732, 4.25, 0.25, -0.625
3733, 4.125, 0, -0.625
3734, 4.25, 0.125, -0.625
3735, 4.125, 0.25, -0.625
3736, 4.25, 0, -0.6875
3737, 4.25, 0.25, -0.6875
3738, 4.5, 0, -0.625
3739, 4.5, 0.25, -0.625
3740, 4.375, 0, -0.625
3741, 4.5, 0.125, -0.625
3742, 4.375, 0.25, -0.625
3743, 4.5, 0, -0.6875
3744, 4.5, 0.25, -0.6875
3745, 4.75, 0, -0.625
3746, 4.75, 0.25, -0.625
3747, 4.625, 0, -0.625
3748, 4.75, 0.125, -0.625
3749, 4.625, 0.25, -0.625
3750, 4.75, 0, -0.6875
3751, 4.75, 0.25, -0.6875
3752, 5, 0, -0.625
3753, 5, 0.25, -0.625
3754, 4.875, 0, -0.625
3755, 5, 0.125, -0.625
3756, 4.875, 0.25, -0.625
3757, 5, 0, -0.6875
3758, 5, 0.25, -0.6875
3759, 5.25, 0, -0.625
3760, 5.25, 0.25, -0.625
3761, 5.125, 0, -0.625
3762, 5.25, 0.125, -0.625
3763, 5.125, 0.25, -0.625
3764, 5.25, 0, -0.6875
3765, 5.25, 0.25, -0.6875
3766, 5.5, 0, -0.625
3767, 5.5, 0.25, -0.625
3768, 5.375, 0, -0.625
3769, 5.5, 0.125, -0.625
3770, 5.375, 0.25, -0.625
3771, 5.5, 0, -0.6875
3772, 5.5, 0.25, -0.6875
3773, 5.75, 0, -0.625
3774, 5.75, 0.25, -0.625
3775, 5.625, 0, -0.625
3776, 5.75, 0.125, -0.625
3777, 5.625, 0.25, -0.625
3778, 5.75, 0, -0.6875
3779, 5.75, 0.25, -0.6875
3780, 6, 0, -0.625
3781, 6, 0.25, -0.625
3782, 5.875, 0, -0.625
3783, 6, 0.125, -0.625
3784, 5.875, 0.25, -0.625
3785, 6, 0, -0.6875
3786, 6, 0.25, -0.6875
3787, 6.25, 0, -0.625
3788, 6.25, 0.25, -0.625
3789, 6.125, 0, -0.625
3790, 6.25, 0.125, -0.625
3791, 6.125, 0.25, -0.625
3792, 6.25, 0, -0.6875
3793, 6.25, 0.25, -0.6875
3794, 6.5, 0, -0.625
3795, 6.5, 0.25, -0.625
3796, 6.375, 0, -0.625
3797, 6.5, 0.125, -0.625
3798, 6.375, 0.25, -0.625
3799, 6.5, 0, -0.6875
3800, 6.5, 0.25, -0.6875
3801, 6.75, 0, -0.625
3802, 6.75, 0.25, -0.625
3803, 6.625, 0, -0.625
3804, 6.75, 0.125, -0.625
3805, 6.625, 0.25, -0.625
3806, 6.75, 0, -0.6875
3807, 6.75, 0.25, -0.6875
3808, 7, 0, -0.625
3809, 7, 0.25, -0.625
3810, 6.875, 0, -0.625
3811, 7, 0.125, -0.625
3812, 6.875, 0.25, -0.625
3813, 7, 0, -0.6875
3814, 7, 0.25, -0.6875
3815, 7.25, 0, -0.625
3816, 7.25, 0.25, -0.625
3817, 7.125, 0, -0.625
3818, 7.25, 0.125, -0.625
3819, 7.125, 0.25, -0.625
3820, 7.25, 0, -0.6875
3821, 7.25, 0.25, -0.6875
3822, 7.5, 0, -0.625
3823, 7.5, 0.25, -0.625
3824, 7.375, 0, -0.625
3825, 7.5, 0.125, -0.625
3826, 7.375, 0.25, -0.625
3827, 7.5, 0, -0.6875
3828, 7.5, 0.25, -0.6875
3829, 7.75, 0, -0.625
3830, 7.75, 0.25, -0.625
3831, 7.625, 0, -0.625
3832, 7.75, 0.125, -0.625
3833, 7.625, 0.25, -0.625
3834, 7.75, 0, -0.6875
3835, 7.75, 0.25, -0.6875
3836, 8, 0, -0.625
3837, 8, 0.25, -0.625
3838, 7.875, 0, -0.625
3839, 8, 0.125, -0.625
3840, 7.875, 0.25, -0.625
3841, 8, 0, -0.6875
3842, 8, 0.25, -0.6875
3843, 8.25, 0, -0.625
3844, 8.25, 0.25, -0.625
3845, 8.125, 0, -0.625
3846, 8.25, 0.125, -0.625
3847, 8.125, 0.25, -0.625
3848, 8.25, 0, -0.6875
3849, 8.25, 0.25, -0.6875
3850, 8.5, 0, -0.625
3851, 8.5, 0.25, -0.625
3852, 8.375, 0, -0.625
3853, 8.5, 0.125, -0.625
3854, 8.375, 0.25, -0.625
3855, 8.5, 0, -0.6875
3856, 8.5, 0.25, -0.6875
3857, 8.75, 0, -0.625
3858, 8.75, 0.25, -0.625
3859, 8.625, 0, -0.625
3860, 8.75, 0.125, -0.625
3861, 8.625, 0.25, -0.625
3862, 8.75, 0, -0.6875
3863, 8.75, 0.25, -0.6875
3864, 9, 0, -0.625
3865, 9, 0.25, -0.625
3866, 8.875, 0, -0.625
3867, 9, 0.125, -0.625
3868, 8.875, 0.25, -0.625
3869, 9, 0, -0.6875
3870, 9, 0.25, -0.6875
3871, 9.25, 0, -0.625
3872, 9.25, 0.25, -0.625
3873, 9.125, 0, -0.625
3874, 9.25, 0.125, -0.625
3875, 9.125, 0.25, -0.625
3876, 9.25, 0, -0.6875
3877, 9.25, 0.25, -0.6875
3878, 9.5, 0, -0.625
3879, 9.5, 0.25, -0.625
3880, 9.375, 0, -0.625
3881, 9.5, 0.125, -0.625
3882, 9.375, 0.25, -0.625
3883, 9.5, 0, -0.6875
3884, 9.5, 0.25, -0.6875
3885, 9.75, 0, -0.625
3886, 9.75, 0.25, -0.625
3887, 9.625, 0, -0.625
3888, 9.75, 0.125, -0.625
3889, 9.625, 0.25, -0.625
3890, 9.75, 0, -0.6875
3891, 9.75, 0.25, -0.6875
3892, 10, 0, -0.625
3893, 10, 0.25, -0.625
3894, 9.875, 0, -0.625
3895, 10, 0.125, -0.625
3896, 9.875, 0.25, -0.625
3897, 10, 0, -0.6875
3898, 10, 0.25, -0.6875
3899, 10.25, 0, -0.625
3900, 10.25, 0.25, -0.625
3901, 10.125, 0, -0.625
3902, 10.25, 0.125, -0.625
3903, 10.125, 0.25, -0.625
3904, 10.25, 0, -0.6875
3905, 10.25, 0.25, -0.6875
3906, 10.5, 0, -0.625
3907, 10.5, 0.25, -0.625
3908, 10.375, 0, -0.625
3909, 10.5, 0.125, -0.625
3910, 10.375, 0.25, -0.625
3911, 10.5, 0, -0.6875
3912, 10.5, 0.25, -0.6875
3913, 10.75, 0, -0.625
3914, 10.75, 0.25, -0.625
3915, 10.625, 0, -0.625
3916, 10.75, 0.125, -0.625
3917, 10.625, 0.25, -0.625
3918, 10.75, 0, -0.6875
3919, 10.75, 0.25, -0.6875
3920, 11, 0, -0.625
3921, 11, 0.25, -0.625
3922, 10.875, 0, -0.625
3923, 11, 0.125, -0.625
3924, 10.875, 0.25, -0.625
3925, 11, 0, -0.6875
3926, 11, 0.25, -0.6875
3927, 11.25, 0, -0.625
3928, 11.25, 0.25, -0.625
3929, 11.125, 0, -0.625
3930, 11.25, 0.125, -0.625
3931, 11.125, 0.25, -0.625
3932, 11.25, 0, -0.6875
3933, 11.25, 0.25, -0.6875
3934, 11.5, 0, -0.625
3935, 11.5, 0.25, -0.625
3936, 11.375, 0, -0.625
3937, 11.5, 0.125, -0.625
3938, 11.375, 0.25, -0.625
3939, 11.5, 0, -0.6875
3940, 11.5, 0.25, -0.6875
3941, 11.75, 0, -0.625
3942, 11.75, 0.25, -0.625
3943, 11.625, 0, -0.625
3944, 11.75, 0.125, -0.625
3945, 11.625, 0.25, -0.625
3946, 11.75, 0, -0.6875
3947, 11.75, 0.25, -0.6875
3948, 12, 0, -0.625
3949, 12, 0.25, -0.625
3950, 11.875, 0, -0.625
3951, 12, 0.125, -0.625
3952, 11.875, 0.25, -0.625
3953, 12, 0, -0.6875
3954, 12, 0.25, -0.6875
3955, 12.25, 0, -0.625
3956, 12.25, 0.25, -0.625
3957, 12.125, 0, -0.625
3958, 12.25, 0.125, -0.625
3959, 12.125, 0.25, -0.625
3960, 12.25, 0, -0.6875
3961, 12.25, 0.25, -0.6875
3962, 12.5, 0, -0.625
3963, 12.5, 0.25, -0.625
3964, 12.375, 0, -0.625
3965, 12.5, 0.125, -0.625
3966, 12.375, 0.25, -0.625
3967, 12.5, 0, -0.6875
3968, 12.5, 0.25, -0.6875
3969, 12.75, 0, -0.625
3970, 12.75, 0.25, -0.625
3971, 12.625, 0, -0.625
3972, 12.75, 0.125, -0.625
3973, 12.625, 0.25, -0.625
3974, 12.75, 0, -0.6875
3975, 12.75, 0.25, -0.6875
3976, 13, 0, -0.625
3977, 13, 0.25, -0.625
3978, 12.875, 0, -0.625
3979, 13, 0.125, -0.625
3980, 12.875, 0.25, -0.625
3981, 13, 0, -0.6875
3982, 13, 0.25, -0.6875
3983, 13.25, 0, -0.625
3984, 13.25, 0.25, -0.625
3985, 13.125, 0, -0.625
3986, 13.25, 0.125, -0.625
3987, 13.125, 0.25, -0.625
3988, 13.25, 0, -0.6875
3989, 13.25, 0.25, -0.6875
3990, 13.5, 0, -0.625
3991, 13.5, 0.25, -0.625
3992, 13.375, 0, -0.625
3993, 13.5, 0.125, -0.625
3994, 13.375, 0.25, -0.625
3995, 13.5, 0, -0.6875
3996, 13.5, 0.25, -0.6875
3997, 13.75, 0, -0.625
3998, 13.75, 0.25, -0.625
3999, 13.625, 0, -0.625
4000, 13.75, 0.125, -0.625
4001, 13.625, 0.25, -0.625
4002, 13.75, 0, -0.6875
4003, 13.75, 0.25, -0.6875
4004, 14, 0, -0.625
4005, 14, 0.25, -0.625
4006, 13.875, 0, -0.625
4007, 14, 0.125, -0.625
4008, 13.875, 0.25, -0.625
4009, 14, 0, -0.6875
4010, 14, 0.25, -0.6875
4011, 14.25, 0, -0.625
4012, 14.25, 0.25, -0.625
4013, 14.125, 0, -0.625
4014, 14.25, 0.125, -0.625
4015, 14.125, 0.25, -0.625
4016, 14.25, 0, -0.6875
4017, 14.25, 0.25, -0.6875
4018, 14.5, 0, -0.625
4019, 14.5, 0.25, -0.625
4020, 14.375, 0, -0.625
4021, 14.5, 0.125, -0.625
4022, 14.375, 0.25, -0.625
4023, 14.5, 0, -0.6875
4024, 14.5, 0.25, -0.6875
4025, 14.75, 0, -0.625
4026, 14.75, 0.25, -0.625
4027, 14.625, 0, -0.625
4028, 14.75, 0.125, -0.625
4029, 14.625, 0.25, -0.625
4030, 14.75, 0, -0.6875
4031, 14.75, 0.25, -0.6875
4032, 15, 0, -0.625
4033, 15, 0.25, -0.625
4034, 14.875, 0, -0.625
4035, 15, 0.125, -0.625
4036, 14.875, 0.25, -0.625
4037, 15, 0, -0.6875
4038, 15, 0.25, -0.6875
4039, 15.25, 0, -0.625
4040, 15.25, 0.25, -0.625
4041, 15.125, 0, -0.625
4042, 15.25, 0.125, -0.625
4043, 15.125, 0.25, -0.625
4044, 15.25, 0, -0.6875
4045, 15.25, 0.25, -0.6875
4046, 15.5, 0, -0.625
4047, 15.5, 0.25, -0.625
4048, 15.375, 0, -0.625
4049, 15.5, 0.125, -0.625
4050, 15.375, 0.25, -0.625
4051, 15.5, 0, -0.6875
4052, 15.5, 0.25, -0.6875
4053, 15.75, 0, -0.625
4054, 15.75, 0.25, -0.625
4055, 15.625, 0, -0.625
4056, 15.75, 0.125, -0.625
4057, 15.625, 0.25, -0.625
4058, 15.75, 0, -0.6875
4059, 15.75, 0.25, -0.6875
4060, 16, 0, -0.625
4061, 16, 0.25, -0.625
4062, 15.875, 0, -0.625
4063, 16, 0.125, -0.625
4064, 15.875, 0.25, -0.625
4065, 16, 0, -0.6875
4066, 16, 0.25, -0.6875
4067, 16.25, 0, -0.625
4068, 16.25, 0.25, -0.625
4069, 16.125, 0, -0.625
4070, 16.25, 0.125, -0.625
4071, 16.125, 0.25, -0.625
4072, 16.25, 0, -0.6875
4073, 16.25, 0.25, -0.6875
4074, 16.5, 0, -0.625
4075, 16.5, 0.25, -0.625
4076, 16.375, 0, -0.625
4077, 16.5, 0.125, -0.625
4078, 16.375, 0.25, -0.625
4079, 16.5, 0, -0.6875
4080, 16.5, 0.25, -0.6875
4081, 16.75, 0, -0.625
4082, 16.75, 0.25, -0.625
4083, 16.625, 0, -0.625
4084, 16.75, 0.125, -0.625
4085, 16.625, 0.25, -0.625
4086, 16.75, 0, -0.6875
4087, 16.75, 0.25, -0.6875
4088, 17, 0, -0.625
4089, 17, 0.25, -0.625
4090, 16.875, 0, -0.625
4091, 17, 0.125, -0.625
4092, 16.875, 0.25, -0.625
4093, 17, 0, -0.6875
4094, 17, 0.25, -0.6875
4095, 17.25, 0, -0.625
4096, 17.25, 0.25, -0.625
4097, 17.125, 0, -0.625
4098, 17.25, 0.125, -0.625
4099, 17.125, 0.25, -0.625
4100, 17.25, 0, -0.6875
4101, 17.25, 0.25, -0.6875
4102, 17.5, 0, -0.625
4103, 17.5, 0.25, -0.625
4104, 17.375, 0, -0.625
4105, 17.5, 0.125, -0.625
4106, 17.375, 0.25, -0.625
4107, 17.5, 0, -0.6875
4108, 17.5, 0.25, -0.6875
4109, 17.75, 0, -0.625
4110, 17.75, 0.25, -0.625
4111, 17.625, 0, -0.625
4112, 17.75, 0.125, -0.625
4113, 17.625, 0.25, -0.625
4114, 17.75, 0, -0.6875
4115, 17.75, 0.25, -0.6875
4116, 18, 0, -0.625
4117, 18, 0.25, -0.625
4118, 17.875, 0, -0.625
4119, 18, 0.125, -0.625
4120, 17.875, 0.25, -0.625
4121, 18, 0, -0.6875
4122, 18, 0.25, -0.6875
4123, 18.25, 0, -0.625
4124, 18.25, 0.25, -0.625
4125, 18.125, 0, -0.625
4126, 18.25, 0.125, -0.625
4127, 18.125, 0.25, -0.625
4128, 18.25, 0, -0.6875
4129, 18.25, 0.25, -0.6875
4130, 18.5, 0, -0.625
4131, 18.5, 0.25, -0.625
4132, 18.375, 0, -0.625
4133, 18.5, 0.125, -0.625
4134, 18.375, 0.25, -0.625
4135, 18.5, 0, -0.6875
4136, 18.5, 0.25, -0.6875
4137, 18.75, 0, -0.625
4138, 18.75, 0.25, -0.625
4139, 18.625, 0, -0.625
4140, 18.75, 0.125, -0.625
4141, 18.625, 0.25, -0.625
4142, 18.75, 0, -0.6875
4143, 18.75, 0.25, -0.6875
4144, 19, 0, -0.625
4145, 19, 0.25, -0.625
4146, 18.875, 0, -0.625
4147, 19, 0.125, -0.625
4148, 18.875, 0.25, -0.625
4149, 19, 0, -0.6875
4150, 19, 0.25, -0.6875
4151, 19.25, 0, -0.625
4152, 19.25, 0.25, -0.625
4153, 19.125, 0, -0.625
4154, 19.25, 0.125, -0.625
4155, 19.125, 0.25, -0.625
4156, 19.25, 0, -0.6875
4157, 19.25, 0.25, -0.6875
4158, 19.5, 0, -0.625
4159, 19.5, 0.25, -0.625
4160, 19.375, 0, -0.625
4161, 19.5, 0.125, -0.625
4162, 19.375, 0.25, -0.625
4163, 19.5, 0, -0.6875
4164, 19.5, 0.25, -0.6875
4165, 19.75, 0, -0.625
4166, 19.75, 0.25, -0.625
4167, 19.625, 0, -0.625
4168, 19.75, 0.125, -0.625
4169, 19.625, 0.25, -0.625
4170, 19.75, 0, -0.6875
4171, 19.75, 0.25, -0.6875
4172, 20, 0, -0.625
4173, 20, 0.25, -0.625
4174, 19.875, 0, -0.625
4175, 20, 0.125, -0.625
4176, 19.875, 0.25, -0.625
4177, 20, 0, -0.6875
4178, 20, 0.25, -0.6875
4179, -20, 0, -0.5
4180, -19.75, 0, -0.5
4181, -19.75, 0.25, -0.5
4182, -20, 0.25, -0.5
4183, -19.875, 0, -0.5
4184, -19.75, 0.125, -0.5
4185, -19.875, 0.25, -0.5
4186, -20, 0.125, -0.5
4187, -20, 0, -0.5625
4188, -19.75, 0, -0.5625
4189, -19.75, 0.25, -0.5625
4190, -20, 0.25, -0.5625
4191, -19.5, 0, -0.5
4192, -19.5, 0.25, -0.5
4193, -19.625, 0, -0.5
4194, -19.5, 0.125, -0.5
4195, -19.625, 0.25, -0.5
4196, -19.5, 0, -0.5625
4197, -19.5, 0.25, -0.5625
4198, -19.25, 0, -0.5
4199, -19.25, 0.25, -0.5
4200, -19.375, 0, -0.5
4201, -19.25, 0.125, -0.5
4202, -19.375, 0.25, -0.5
4203, -19.25, 0, -0.5625
4204, -19.25, 0.25, -0.5625
4205, -19, 0, -0.5
4206, -19, 0.25, -0.5
4207, -19.125, 0, -0.5
4208, -19, 0.125, -0.5
4209, -19.125, 0.25, -0.5
4210, -19, 0, -0.5625
4211, -19, 0.25, -0.5625
4212, -18.75, 0, -0.5
4213, -18.75, 0.25, -0.5
4214, -18.875, 0, -0.5
4215, -18.75, 0.125, -0.5
4216, -18.875, 0.25, -0.5
4217, -18.75, 0, -0.5625
4218, -18.75, 0.25, -0.5625
4219, -18.5, 0, -0.5
4220, -18.5, 0.25, -0.5
4221, -18.625, 0, -0.5
4222, -18.5, 0.125, -0.5
4223, -18.625, 0.25, -0.5
4224, -18.5, 0, -0.5625
4225, -18.5, 0.25, -0.5625
4226, -18.25, 0, -0.5
4227, -18.25, 0.25, -0.5
4228, -18.375, 0, -0.5
4229, -18.25, 0.125, -0.5
4230, -18.375, 0.25, -0.5
4231, -18.25, 0, -0.5625
4232, -18.25, 0.25, -0.5625
4233, -18, 0, -0.5
4234, -18, 0.25, -0.5
4235, -18.125, 0, -0.5
4236, -18, 0.125, -0.5
4237, -18.125, 0.25, -0.5
4238, -18, 0, -0.5625
4239, -18, 0.25, -0.5625
4240, -17.75, 0, -0.5
4241, -17.75, 0.25, -0.5
4242, -17.875, 0, -0.5
4243, -17.75, 0.125, -0.5
4244, -17.875, 0.25, -0.5
4245, -17.75, 0, -0.5625
4246, -17.75, 0.25, -0.5625
4247, -17.5, 0, -0.5
4248, -17.5, 0.25, -0.5
4249, -17.625, 0, -0.5
4250, -17.5, 0.125, -0.5
4251, -17.625, 0.25, -0.5
4252, -17.5, 0, -0.5625
4253, -17.5, 0.25, -0.5625
4254, -17.25, 0, -0.5
4255, -17.25, 0.25, -0.5
4256, -17.375, 0, -0.5
4257, -17.25, 0.125, -0.5
4258, -17.375, 0.25, -0.5
4259, -17.25, 0, -0.5625
4260, -17.25, 0.25, -0.5625
4261, -17, 0, -0.5
4262, -17, 0.25, -0.5
4263, -17.125, 0, -0.5
4264, -17, 0.125, -0.5
4265, -17.125, 0.25, -0.5
4266, -17, 0, -0.5625
4267, -17, 0.25, -0.5625
4268, -16.75, 0, -0.5
4269, -16.75, 0.25, -0.5
4270, -16.875, 0, -0.5
4271, -16.75, 0.125, -0.5
4272, -16.875, 0.25, -0.5
4273, -16.75, 0, -0.5625
4274, -16.75, 0.25, -0.5625
4275, -16.5, 0, -0.5
4276, -16.5, 0.25, -0.5
4277, -16.625, 0, -0.5
4278, -16.5, 0.125, -0.5
4279, -16.625, 0.25, -0.5
4280, -16.5, 0, -0.5625
4281, -16.5, 0.25, -0.5625
4282, -16.25, 0, -0.5
4283, -16.25, 0.25, -0.5
4284, -16.375, 0, -0.5
4285, -16.25, 0.125, -0.5
4286, -16.375, 0.25, -0.5
4287, -16.25, 0, -0.5625
4288, -16.25, 0.25, -0.5625
4289, -16, 0, -0.5
4290, -16, 0.25, -0.5
4291, -16.125, 0, -0.5
4292, -16, 0.125, -0.5
4293, -16.125, 0.25, -0.5
4294, -16, 0, -0.5625
4295, -16, 0.25, -0.5625
4296, -15.75, 0, -0.5
4297, -15.75, 0.25, -0.5
4298, -15.875, 0, -0.5
4299, -15.75, 0.125, -0.5
4300, -15.875, 0.25, -0.5
4301, -15.75, 0, -0.5625
4302, -15.75, 0.25, -0.5625
4303, -15.5, 0, -0.5
4304, -15.5, 0.25, -0.5
4305, -15.625, 0, -0.5
4306, -15.5, 0.125, -0.5
4307, -15.625, 0.25, -0.5
4308, -15.5, 0, -0.5625
4309, -15.5, 0.25, -0.5625
4310, -15.25, 0, -0.5
4311, -15.25, 0.25, -0.5
4312, -15.375, 0, -0.5
4313, -15.25, 0.125, -0.5
4314, -15.375, 0.25, -0.5
4315, -15.25, 0, -0.5625
4316, -15.25, 0.25, -0.5625
4317, -15, 0, -0.5
4318, -15, 0.25, -0.5
4319, -15.125, 0, -0.5
4320, -15, 0.125, -0.5
4321, -15.125, 0.25, -0.5
4322, -15, 0, -0.5625
4323, -15, 0.25, -0.5625
4324, -14.75, 0, -0.5
4325, -14.75, 0.25, -0.5
4326, -14.875, 0, -0.5
4327, -14.75, 0.125, -0.5
4328, -14.875, 0.25, -0.5
4329, -14.75, 0, -0.5625
4330, -14.75, 0.25, -0.5625
4331, -14.5, 0, -0.5
4332, -14.5, 0.25, -0.5
4333, -14.625, 0, -0.5
4334, -14.5, 0.125, -0.5
4335, -14.625, 0.25, -0.5
4336, -14.5, 0, -0.5625
4337, -14.5, 0.25, -0.5625
4338, -14.25, 0, -0.5
4339, -14.25, 0.25, -0.5
4340, -14.375, 0, -0.5
4341, -14.25, 0.125, -0.5
4342, -14.375, 0.25, -0.5
4343, -14.25, 0, -0.5625
4344, -14.25, 0.25, -0.5625
4345, -14, 0, -0.5
4346, -14, 0.25, -0.5
4347, -14.125, 0, -0.5
4348, -14, 0.125, -0.5
4349, -14.125, 0.25, -0.5
4350, -14, 0, -0.5625
4351, -14, 0.25, -0.5625
4352, -13.75, 0, -0.5
4353, -13.75, 0.25, -0.5
4354, -13.875, 0, -0.5
4355, -13.75, 0.125, -0.5
4356, -13.875, 0.25, -0.5
4357, -13.75, 0, -0.5625
4358, -13.75, 0.25, -0.5625
4359, -13.5, 0, -0.5
4360, -13.5, 0.25, -0.5
4361, -13.625, 0, -0.5
4362, -13.5, 0.125, -0.5
4363, -13.625, 0.25, -0.5
4364, -13.5, 0, -0.5625
4365, -13.5, 0.25, -0.5625
4366, -13.25, 0, -0.5
4367, -13.25, 0.25, -0.5
4368, -13.375, 0, -0.5
4369, -13.25, 0.125, -0.5
4370, -13.375, 0.25, -0.5
4371, -13.25, 0, -0.5625
4372, -13.25, 0.25, -0.5625
4373, -13, 0, -0.5
4374, -13, 0.25, -0.5
4375, -13.125, 0, -0.5
4376, -13, 0.125, -0.5
4377, -13.125, 0.25, -0.5
4378, -13, 0, -0.5625
4379, -13, 0.25, -0.5625
4380, -12.75, 0, -0.5
4381, -12.75, 0.25, -0.5
4382, -12.875, 0, -0.5
4383, -12.75, 0.125, -0.5
4384, -12.875, 0.25, -0.5
4385, -12.75, 0, -0.5625
4386, -12.75, 0.25, -0.5625
4387, -12.5, 0, -0.5
4388, -12.5, 0.25, -0.5
4389, -12.625, 0, -0.5
4390, -12.5, 0.125, -0.5
4391, -12.625, 0.25, -0.5
4392, -12.5, 0, -0.5625
4393, -12.5, 0.25, -0.5625
4394, -12.25, 0, -0.5
4395, -12.25, 0.25, -0.5
4396, -12.375, 0, -0.5
4397, -12.25, 0.125, -0.5
4398, -12.375, 0.25, -0.5
4399, -12.25, 0, -0.5625
4400, -12.25, 0.25, -0.5625
4401, -12, 0, -0.5
4402, -12, 0.25, -0.5
4403, -12.125, 0, -0.5
4404, -12, 0.125, -0.5
4405, -12.125, 0.25, -0.5
4406, -12, 0, -0.5625
4407, -12, 0.25, -0.5625
4408, -11.75, 0, -0.5
4409, -11.75, 0.25, -0.5
4410, -11.875, 0, -0.5
4411, -11.75, 0.125, -0.5
4412, -11.875, 0.25, -0.5
4413, -11.75, 0, -0.5625
4414, -11.75, 0.25, -0.5625
4415, -11.5, 0, -0.5
4416, -11.5, 0.25, -0.5
4417, -11.625, 0, -0.5
4418, -11.5, 0.125, -0.5
4419, -11.625, 0.25, -0.5
4420, -11.5, 0, -0.5625
4421, -11.5, 0.25, -0.5625
4422, -11.25, 0, -0.5
4423, -11.25, 0.25, -0.5
4424, -11.375, 0, -0.5
4425, -11.25, 0.125, -0.5
4426, -11.375, 0.25, -0.5
4427, -11.25, 0, -0.5625
4428, -11.25, 0.25, -0.5625
4429, -11, 0, -0.5
4430, -11, 0.25, -0.5
4431, -11.125, 0, -0.5
4432, -11, 0.125, -0.5
4433, -11.125, 0.25, -0.5
4434, -11, 0, -0.5625
4435, -11, 0.25, -0.5625
4436, -10.75, 0, -0.5
4437, -10.75, 0.25, -0.5
4438, -10.875, 0, -0.5
4439, -10.75, 0.125, -0.5
4440, -10.875, 0.25, -0.5
4441, -10.75, 0, -0.5625
4442, -10.75, 0.25, -0.5625
4443, -10.5, 0, -0.5
4444, -10.5, 0.25, -0.5
4445, -10.625, 0, -0.5
4446, -10.5, 0.125, -0.5
4447, -10.625, 0.25, -0.5
4448, -10.5, 0, -0.5625
4449, -10.5, 0.25, -0.5625
4450, -10.25, 0, -0.5
4451, -10.25, 0.25, -0.5
4452, -10.375, 0, -0.5
4453, -10.25, 0.125, -0.5
4454, -10.375, 0.25, -0.5
4455, -10.25, 0, -0.5625
4456, -10.25, 0.25, -0.5625
4457, -10, 0, -0.5
4458, -10, 0.25, -0.5
4459, -10.125, 0, -0.5
4460, -10, 0.125, -0.5
4461, -10.125, 0.25, -0.5
4462, -10, 0, -0.5625
4463, -10, 0.25, -0.5625
4464, -9.75, 0, -0.5
4465, -9.75, 0.25, -0.5
4466, -9.875, 0, -0.5
4467, -9.75, 0.125, -0.5
4468, -9.875, 0.25, -0.5
4469, -9.75, 0, -0.5625
4470, -9.75, 0.25, -0.5625
4471, -9.5, 0, -0.5
4472, -9.5, 0.25, -0.5
4473, -9.625, 0, -0.5
4474, -9.5, 0.125, -0.5
4475, -9.625, 0.25, -0.5
4476, -9.5, 0, -0.5625
4477, -9.5, 0.25, -0.5625
4478, -9.25, 0, -0.5
4479, -9.25, 0.25, -0.5
4480, -9.375, 0, -0.5
4481, -9.25, 0.125, -0.5
4482, -9.375, 0.25, -0.5
4483, -9.25, 0, -0.5625
4484, -9.25, 0.25, -0.5625
4485, -9, 0, -0.5
4486, -9, 0.25, -0.5
4487, -9.125, 0, -0.5
4488, -9, 0.125, -0.5
4489, -9.125, 0.25, -0.5
4490, -9, 0, -0.5625
4491, -9, 0.25, -0.5625
4492, -8.75, 0, -0.5
4493, -8.75, 0.25, -0.5
4494, -8.875, 0, -0.5
4495, -8.75, 0.125, -0.5
4496, -8.875, 0.25, -0.5
4497, -8.75, 0, -0.5625
4498, -8.75, 0.25, -0.5625
4499, -8.5, 0, -0.5
4500, -8.5, 0.25, -0.5
4501, -8.625, 0, -0.5
4502, -8.5, 0.125, -0.5
4503, -8.625, 0.25, -0.5
4504, -8.5, 0, -0.5625
4505, -8.5, 0.25, -0.5625
4506, -8.25, 0, -0.5
4507, -8.25, 0.25, -0.5
4508, -8.375, 0, -0.5
4509, -8.25, 0.125, -0.5
4510, -8.375, 0.25, -0.5
4511, -8.25, 0, -0.5625
4512, -8.25, 0.25, -0.5625
4513, -8, 0, -0.5
4514, -8, 0.25, -0.5
4515, -8.125, 0, -0.5
4516, -8, 0.125, -0.5
4517, -8.125, 0.25, -0.5
4518, -8, 0, -0.5625
4519, -8, 0.25, -0.5625
4520, -7.75, 0, -0.5
4521, -7.75, 0.25, -0.5
4522, -7.875, 0, -0.5
4523, -7.75, 0.125, -0.5
4524, -7.875, 0.25, -0.5
4525, -7.75, 0, -0.5625
4526, -7.75, 0.25, -0.5625
4527, -7.5, 0, -0.5
4528, -7.5, 0.25, -0.5
4529, -7.625, 0, -0.5
4530, -7.5, 0.125, -0.5
4531, -7.625, 0.25, -0.5
4532, -7.5, 0, -0.5625
4533, -7.5, 0.25, -0.5625
4534, -7.25, 0, -0.5
4535, -7.25, 0.25, -0.5
4536, -7.375, 0, -0.5
4537, -7.25, 0.125, -0.5
4538, -7.375, 0.25, -0.5
4539, -7.25, 0, -0.5625
4540, -7.25, 0.25, -0.5625
4541, -7, 0, -0.5
4542, -7, 0.25, -0.5
4543, -7.125, 0, -0.5
4544, -7, 0.125, -0.5
4545, -7.125, 0.25, -0.5
4546, -7, 0, -0.5625
4547, -7, 0.25, -0.5625
4548, -6.75, 0, -0.5
4549, -6.75, 0.25, -0.5
4550, -6.875, 0, -0.5
4551, -6.75, 0.125, -0.5
4552, -6.875, 0.25, -0.5
4553, -6.75, 0, -0.5625
4554, -6.75, 0.25, -0.5625
4555, -6.5, 0, -0.5
4556, -6.5, 0.25, -0.5
4557, -6.625, 0, -0.5
4558, -6.5, 0.125, -0.5
4559, -6.625, 0.25, -0.5
4560, -6.5, 0, -0.5625
4561, -6.5, 0.25, -0.5625
4562, -6.25, 0, -0.5
4563, -6.25, 0.25, -0.5
4564, -6.375, 0, -0.5
4565, -6.25, 0.125, -0.5
4566, -6.375, 0.25, -0.5
4567, -6.25, 0, -0.5625
4568, -6.25, 0.25, -0.5625
4569, -6, 0, -0.5
4570, -6, 0.25, -0.5
4571, -6.125, 0, -0.5
4572, -6, 0.125, -0.5
4573, -6.125, 0.25, -0.5
4574, -6, 0, -0.5625
4575, -6, 0.25, -0.5625
4576, -5.75, 0, -0.5
4577, -5.75, 0.25, -0.5
4578, -5.875, 0, -0.5
4579, -5.75, 0.125, -0.5
4580, -5.875, 0.25, -0.5
4581, -5.75, 0, -0.5625
4582, -5.75, 0.25, -0.5625
4583, -5.5, 0, -0.5
4584, -5.5, 0.25, -0.5
4585, -5.625, 0, -0.5
4586, -5.5, 0.125, -0.5
4587, -5.625, 0.25, -0.5
4588, -5.5, 0, -0.5625
4589, -5.5, 0.25, -0.5625
4590, -5.25, 0, -0.5
4591, -5.25, 0.25, -0.5
4592, -5.375, 0, -0.5
4593, -5.25, 0.125, -0.5
4594, -5.375, 0.25, -0.5
4595, -5.25, 0, -0.5625
4596, -5.25, 0.25, -0.5625
4597, -5, 0, -0.5
4598, -5, 0.25, -0.5
4599, -5.125, 0, -0.5
4600, -5, 0.125, -0.5
4601, -5.125, 0.25, -0.5
4602, -5, 0, -0.5625
4603, -5, 0.25, -0.5625
4604, -4.75, 0, -0.5
4605, -4.75, 0.25, -0.5
4606, -4.875, 0, -0.5
4607, -4.75, 0.125, -0.5
4608, -4.875, 0.25, -0.5
4609, -4.75, 0, -0.5625
4610, -4.75, 0.25, -0.5625
4611, -4.5, 0, -0.5
4612, -4.5, 0.25, -0.5
4613, -4.625, 0, -0.5
4614, -4.5, 0.125, -0.5
4615, -4.625, 0.25, -0.5
4616, -4.5, 0, -0.5625
4617, -4.5, 0.25, -0.5625
4618, -4.25, 0, -0.5
4619, -4.25, 0.25, -0.5
4620, -4.375, 0, -0.5
4621, -4.25, 0.125, -0.5
4622, -4.375, 0.25, -0.5
4623, -4.25, 0, -0.5625
4624, -4.25, 0.25, -0.5625
4625, -4, 0, -0.5
4626, -4, 0.25, -0.5
4627, -4.125, 0, -0.5
4628, -4, 0.125, -0.5
4629, -4.125, 0.25, -0.5
4630, -4, 0, -0.5625
4631, -4, 0.25, -0.5625
4632, -3.75, 0, -0.5
4633, -3.75, 0.25, -0.5
4634, -3.875, 0, -0.5
4635, -3.75, 0.125, -0.5
4636, -3.875, 0.25, -0.5
4637, -3.75, 0, -0.5625
4638, -3.75, 0.25, -0.5625
4639, -3.5, 0, -0.5
4640, -3.5, 0.25, -0.5
4641, -3.625, 0, -0.5
4642, -3.5, 0.125, -0.5
4643, -3.625, 0.25, -0.5
4644, -3.5, 0, -0.5625
4645, -3.5, 0.25, -0.5625
4646, -3.25, 0, -0.5
4647, -3.25, 0.25, -0.5
4648, -3.375, 0, -0.5
4649, -3.25, 0.125, -0.5
4650, -3.375, 0.25, -0.5
4651, -3.25, 0, -0.5625
4652, -3.25, 0.25, -0.5625
4653, -3, 0, -0.5
4654, -3, 0.25, -0.5
4655, -3.125, 0, -0.5
4656, -3, 0.125, -0.5
4657, -3.125, 0.25, -0.5
4658, -3, 0, -0.5625
4659, -3, 0.25, -0.5625
4660, -2.75, 0, -0.5
4661, -2.75, 0.25, -0.5
4662, -2.875, 0, -0.5
4663, -2.75, 0.125, -0.5
4664, -2.875, 0.25, -0.5
4665, -2.75, 0, -0.5625
4666, -2.75, 0.25, -0.5625
4667, -2.5, 0, -0.5
4668, -2.5, 0.25, -0.5
4669, -2.625, 0, -0.5
4670, -2.5, 0.125, -0.5
4671, -2.625, 0.25, -0.5
4672, -2.5, 0, -0.5625
4673, -2.5, 0.25, -0.5625
4674, -2.25, 0, -0.5
4675, -2.25, 0.25, -0.5
4676, -2.375, 0, -0.5
4677, -2.25, 0.125, -0.5
4678, -2.375, 0.25, -0.5
4679, -2.25, 0, -0.5625
4680, -2.25, 0.25, -0.5625
4681, -2, 0, -0.5
4682, -2, 0.25, -0.5
4683, -2.125, 0, -0.5
4684, -2, 0.125, -0.5
4685, -2.125, 0.25, -0.5
4686, -2, 0, -0.5625
4687, -2, 0.25, -0.5625
4688, -1.75, 0, -0.5
4689, -1.75, 0.25, -0.5
4690, -1.875, 0, -0.5
4691, -1.75, 0.125, -0.5
4692, -1.875, 0.25, -0.5
4693, -1.75, 0, -0.5625
4694, -1.75, 0.25, -0.5625
4695, -1.5, 0, -0.5
4696, -1.5, 0.25, -0.5
4697, -1.625, 0, -0.5
4698, -1.5, 0.125, -0.5
4699, -1.625, 0.25, -0.5
4700, -1.5, 0, -0.5625
4701, -1.5, 0.25, -0.5625
4702, -1.25, 0, -0.5
4703, -1.25, 0.25, -0.5
4704, -1.375, 0, -0.5
4705, -1.25, 0.125, -0.5
4706, -1.375, 0.25, -0.5
4707, -1.25, 0, -0.5625
4708, -1.25, 0.25, -0.5625
4709, -1, 0, -0.5
4710, -1, 0.25, -0.5
4711, -1.125, 0, -0.5
4712, -1, 0.125, -0.5
4713, -1.125, 0.25, -0.5
4714, -1, 0, -0.5625
4715, -1, 0.25, -0.5625
4716, -0.75, 0, -0.5
4717, -0.75, 0.25, -0.5
4718, -0.875, 0, -0.5
4719, -0.75, 0.125, -0.5
4720, -0.875, 0.25, -0.5
4721, -0.75, 0, -0.5625
4722, -0.75, 0.25, -0.5625
4723, -0.5, 0, -0.5
4724, -0.5, 0.25, -0.5
4725, -0.625, 0, -0.5
4726, -0.5, 0.125, -0.5
4727, -0.625, 0.25, -0.5
4728, -0.5, 0, -0.5625
4729, -0.5, 0.25, -0.5625
4730, -0.25, 0, -0.5
4731, -0.25, 0.25, -0.5
4732, -0.375, 0, -0.5
4733, -0.25, 0.125, -0.5
4734, -0.375, 0.25, -0.5
4735, -0.25, 0, -0.5625
4736, -0.25, 0.25, -0.5625
4737, 0, 0, -0.5
4738, 0, 0.25, -0.5
4739, -0.125, 0, -0.5
4740, 0, 0.125, -0.5
4741, -0.125, 0.25, -0.5
4742, 0, 0, -0.5625
4743, 0, 0.25, -0.5625
4744, 0.25, 0, -0.5
4745, 0.25, 0.25, -0.5
4746, 0.125, 0, -0.5
4747, 0.25, 0.125, -0.5
4748, 0.125, 0.25, -0.5
4749, 0.25, 0, -0.5625
4750, 0.25, 0.25, -0.5625
4751, 0.5, 0, -0.5
4752, 0.5, 0.25, -0.5
4753, 0.375, 0, -0.5
4754, 0.5, 0.125, -0.5
4755, 0.375, 0.25, -0.5
4756, 0.5, 0, -0.5625
4757, 0.5, 0.25, -0.5625
4758, 0.75, 0, -0.5
4759, 0.75, 0.25, -0.5
4760, 0.625, 0, -0.5
4761, 0.75, 0.125, -0.5
4762, 0.625, 0.25, -0.5
4763, 0.75, 0, -0.5625
4764, 0.75, 0.25, -0.5625
4765, 1, 0, -0.5
4766, 1, 0.25, -0.5
4767, 0.875, 0, -0.5
4768, 1, 0.125, -0.5
4769, 0.875, 0.25, -0.5
4770, 1, 0, -0.5625
4771, 1, 0.25, -0.5625
4772, 1.25, 0, -0.5
4773, 1.25, 0.25, -0.5
4774, 1.125, 0, -0.5
4775, 1.25, 0.125, -0.5
4776, 1.125, 0.25, -0.5
4777, 1.25, 0, -0.5625
4778, 1.25, 0.25, -0.5625
4779, 1.5, 0, -0.5
4780, 1.5, 0.25, -0.5
4781, 1.375, 0, -0.5
4782, 1.5, 0.125, -0.5
4783, 1.375, 0.25, -0.5
4784, 1.5, 0, -0.5625
4785, 1.5, 0.25, -0.5625
4786, 1.75, 0, -0.5
4787, 1.75, 0.25, -0.5
4788, 1.625, 0, -0.5
4789, 1.75, 0.125, -0.5
4790, 1.625, 0.25, -0.5
4791, 1.75, 0, -0.5625
4792, 1.75, 0.25, -0.5625
4793, 2, 0, -0.5
4794, 2, 0.25, -0.5
4795, 1.875, 0, -0.5
4796, 2, 0.125, -0.5
4797, 1.875, 0.25, -0.5
4798, 2, 0, -0.5625
4799, 2, 0.25, -0.5625
4800, 2.25, 0, -0.5
4801, 2.25, 0.25, -0.5
4802, 2.125, 0, -0.5
4803, 2.25, 0.125, -0.5
4804, 2.125, 0.25, -0.5
4805, 2.25, 0, -0.5625
4806, 2.25, 0.25, -0.5625
4807, 2.5, 0, -0.5
4808, 2.5, 0.25, -0.5
4809, 2.375, 0, -0.5
4810, 2.5, 0.125, -0.5
4811, 2.375, 0.25, -0.5
4812, 2.5, 0, -0.5625
4813, 2.5, 0.25, -0.5625
4814, 2.75, 0, -0.5
4815, 2.75, 0.25, -0.5
4816, 2.625, 0, -0.5
4817, 2.75, 0.125, -0.5
4818, 2.625, 0.25, -0.5
4819, 2.75, 0, -0.5625
4820, 2.75, 0.25, -0.5625
4821, 3, 0, -0.5
4822, 3, 0.25, -0.5
4823, 2.875, 0, -0.5
4824, 3, 0.125, -0.5
4825, 2.875, 0.25, -0.5
4826, 3, 0, -0.5625
4827, 3, 0.25, -0.5625
4828, 3.25, 0, -0.5
4829, 3.25, 0.25, -0.5
4830, 3.125, 0, -0.5
4831, 3.25, 0.125, -0.5
4832, 3.125, 0.25, -0.5
4833, 3.25, 0, -0.5625
4834, 3.25, 0.25, -0.5625
4835, 3.5, 0, -0.5
4836, 3.5, 0.25, -0.5
4837, 3.375, 0, -0.5
4838, 3.5, 0.125, -0.5
4839, 3.375, 0.25, -0.5
4840, 3.5, 0, -0.5625
4841, 3.5, 0.25, -0.5625
4842, 3.75, 0, -0.5
4843, 3.75, 0.25, -0.5
4844, 3.625, 0, -0.5
4845, 3.75, 0.125, -0.5
4846, 3.625, 0.25, -0.5
4847, 3.75, 0, -0.5625
4848, 3.75, 0.25, -0.5625
4849, 4, 0, -0.5
4850, 4, 0.25, -0.5
4851, 3.875, 0, -0.5
4852, 4, 0.125, -0.5
4853, 3.875, 0.25, -0.5
4854, 4, 0, -0.5625
4855, 4, 0.25, -0.5625
4856, 4.25, 0, -0.5
4857, 4.25, 0.25, -0.5
4858, 4.125, 0, -0.5
4859, 4.25, 0.125, -0.5
4860, 4.125, 0.25, -0.5
4861, 4.25, 0, -0.5625
4862, 4.25, 0.25, -0.5625
4863, 4.5, 0, -0.5
4864, 4.5, 0.25, -0.5
4865, 4.375, 0, -0.5
4866, 4.5, 0.125, -0.5
4867, 4.375, 0.25, -0.5
4868, 4.5, 0, -0.5625
4869, 4.5, 0.25, -0.5625
4870, 4.75, 0, -0.5
4871, 4.75, 0.25, -0.5
4872, 4.625, 0, -0.5
4873, 4.75, 0.125, -0.5
4874, 4.625, 0.25, -0.5
4875, 4.75, 0, -0.5625
4876, 4.75, 0.25, -0.5625
4877, 5, 0, -0.5
4878, 5, 0.25, -0.5
4879, 4.875, 0, -0.5
4880, 5, 0.125, -0.5
4881, 4.875, 0.25, -0.5
4882, 5, 0, -0.5625
4883, 5, 0.25, -0.5625
4884, 5.25, 0, -0.5
4885, 5.25, 0.25, -0.5
4886, 5.125, 0, -0.5
4887, 5.25, 0.125, -0.5
4888, 5.125, 0.25, -0.5
4889, 5.25, 0, -0.5625
4890, 5.25, 0.25, -0.5625
4891, 5.5, 0, -0.5
4892, 5.5, 0.25, -0.5
4893, 5.375, 0, -0.5
4894, 5.5, 0.125, -0.5
4895, 5.375, 0.25, -0.5
4896, 5.5, 0, -0.5625
4897, 5.5, 0.25, -0.5625
4898, 5.75, 0, -0.5
4899, 5.75, 0.25, -0.5
4900, 5.625, 0, -0.5
4901, 5.75, 0.125, -0.5
4902, 5.625, 0.25, -0.5
4903, 5.75, 0, -0.5625
4904, 5.75, 0.25, -0.5625
4905, 6, 0, -0.5
4906, 6, 0.25, -0.5
4907, 5.875, 0, -0.5
4908, 6, 0.125, -0.5
4909, 5.875, 0.25, -0.5
4910, 6, 0, -0.5625
4911, 6, 0.25, -0.5625
4912, 6.25, 0, -0.5
4913, 6.25, 0.25, -0.5
4914, 6.125, 0, -0.5
4915, 6.25, 0.125, -0.5
4916, 6.125, 0.25, -0.5
4917, 6.25, 0, -0.5625
4918, 6.25, 0.25, -0.5625
4919, 6.5, 0, -0.5
4920, 6.5, 0.25, -0.5
4921, 6.375, 0, -0.5
4922, 6.5, 0.125, -0.5
4923, 6.375, 0.25, -0.5
4924, 6.5, 0, -0.5625
4925, 6.5, 0.25, -0.5625
4926, 6.75, 0, -0.5
4927, 6.75, 0.25, -0.5
4928, 6.625, 0, -0.5
4929, 6.75, 0.125, -0.5
4930, 6.625, 0.25, -0.5
4931, 6.75, 0, -0.5625
4932, 6.75, 0.25, -0.5625
4933, 7, 0, -0.5
4934, 7, 0.25, -0.5
4935, 6.875, 0, -0.5
4936, 7, 0.125, -0.5
4937, 6.875, 0.25, -0.5
4938, 7, 0, -0.5625
4939, 7, 0.25, -0.5625
4940, 7.25, 0, -0.5
4941, 7.25, 0.25, -0.5
4942, 7.125, 0, -0.5
4943, 7.25, 0.125, -0.5
4944, 7.125, 0.25, -0.5
4945, 7.25, 0, -0.5625
4946, 7.25, 0.25, -0.5625
4947, 7.5, 0, -0.5
4948, 7.5, 0.25, -0.5
4949, 7.375, 0, -0.5
4950, 7.5, 0.125, -0.5
4951, 7.375, 0.25, -0.5
4952, 7.5, 0, -0.5625
4953, 7.5, 0.25, -0.5625
4954, 7.75, 0, -0.5
4955, 7.75, 0.25, -0.5
4956, 7.625, 0, -0.5
4957, 7.75, 0.125, -0.5
4958, 7.625, 0.25, -0.5
4959, 7.75, 0, -0.5625
4960, 7.75, 0.25, -0.5625
4961, 8, 0, -0.5
4962, 8, 0.25, -0.5
4963, 7.875, 0, -0.5
4964, 8, 0.125, -0.5
4965, 7.875, 0.25, -0.5
4966, 8, 0, -0.5625
4967, 8, 0.25, -0.5625
4968, 8.25, 0, -0.5
4969, 8.25, 0.25, -0.5
4970, 8.125, 0, -0.5
4971, 8.25, 0.125, -0.5
4972, 8.125, 0.25, -0.5
4973, 8.25, 0, -0.5625
4974, 8.25, 0.25, -0.5625
4975, 8.5, 0, -0.5
4976, 8.5, 0.25, -0.5
4977, 8.375, 0, -0.5
4978, 8.5, 0.125, -0.5
4979, 8.375, 0.25, -0.5
4980, 8.5, 0, -0.5625
4981, 8.5, 0.25, -0.5625
4982, 8.75, 0, -0.5
4983, 8.75, 0.25, -0.5
4984, 8.625, 0, -0.5
4985, 8.75, 0.125, -0.5
4986, 8.625, 0.25, -0.5
4987, 8.75, 0, -0.5625
4988, 8.75, 0.25, -0.5625
4989, 9, 0, -0.5
4990, 9, 0.25, -0.5
4991, 8.875, 0, -0.5
4992, 9, 0.125, -0.5
4993, 8.875, 0.25, -0.5
4994, 9, 0, -0.5625
4995, 9, 0.25, -0.5625
4996, 9.25, 0, -0.5
4997, 9.25, 0.25, -0.5
4998, 9.125, 0, -0.5
4999, 9.25, 0.125, -0.5
5000, 9.125, 0.25, -0.5
5001, 9.25, 0, -0.5625
5002, 9.25, 0.25, -0.5625
5003, 9.5, 0, -0.5
5004, 9.5, 0.25, -0.5
5005, 9.375, 0, -0.5
5006, 9.5, 0.125, -0.5
5007, 9.375, 0.25, -0.5
5008, 9.5, 0, -0.5625
5009, 9.5, 0.25, -0.5625
5010, 9.75, 0, -0.5
5011, 9.75, 0.25, -0.5
5012, 9.625, 0, -0.5
5013, 9.75, 0.125, -0.5
5014, 9.625, 0.25, -0.5
5015, 9.75, 0, -0.5625
5016, 9.75, 0.25, -0.5625
5017, 10, 0, -0.5
5018, 10, 0.25, -0.5
5019, 9.875, 0, -0.5
5020, 10, 0.125, -0.5
5021, 9.875, 0.25, -0.5
5022, 10, 0, -0.5625
5023, 10, 0.25, -0.5625
5024, 10.25, 0, -0.5
5025, 10.25, 0.25, -0.5
5026, 10.125, 0, -0.5
5027, 10.25, 0.125, -0.5
5028, 10.125, 0.25, -0.5
5029, 10.25, 0, -0.5625
5030, 10.25, 0.25, -0.5625
5031, 10.5, 0, -0.5
5032, 10.5, 0.25, -0.5
5033, 10.375, 0, -0.5
5034, 10.5, 0.125, -0.5
5035, 10.375, 0.25, -0.5
5036, 10.5, 0, -0.5625
5037, 10.5, 0.25, -0.5625
5038, 10.75, 0, -0.5
5039, 10.75, 0.25, -0.5
5040, 10.625, 0, -0.5
5041, 10.75, 0.125, -0.5
5042, 10.625, 0.25, -0.5
5043, 10.75, 0, -0.5625
5044, 10.75, 0.25, -0.5625
5045, 11, 0, -0.5
5046, 11, 0.25, -0.5
5047, 10.875, 0, -0.5
5048, 11, 0.125, -0.5
5049, 10.875, 0.25, -0.5
5050, 11, 0, -0.5625
5051, 11, 0.25, -0.5625
5052, 11.25, 0, -0.5
5053, 11.25, 0.25, -0.5
5054, 11.125, 0, -0.5
5055, 11.25, 0.125, -0.5
5056, 11.125, 0.25, -0.5
5057, 11.25, 0, -0.5625
5058, 11.25, 0.25, -0.5625
5059, 11.5, 0, -0.5
5060, 11.5, 0.25, -0.5
5061, 11.375, 0, -0.5
5062, 11.5, 0.125, -0.5
5063, 11.375, 0.25, -0.5
5064, 11.5, 0, -0.5625
5065, 11.5, 0.25, -0.5625
5066, 11.75, 0, -0.5
5067, 11.75, 0.25, -0.5
5068, 11.625, 0, -0.5
5069, 11.75, 0.125, -0.5
5070, 11.625, 0.25, -0.5
5071, 11.75, 0, -0.5625
5072, 11.75, 0.25, -0.5625
5073, 12, 0, -0.5
5074, 12, 0.25, -0.5
5075, 11.875, 0, -0.5
5076, 12, 0.125, -0.5
5077, 11.875, 0.25, -0.5
5078, 12, 0, -0.5625
5079, 12, 0.25, -0.5625
5080, 12.25, 0, -0.5
5081, 12.25, 0.25, -0.5
5082, 12.125, 0, -0.5
5083, 12.25, 0.125, -0.5
5084, 12.125, 0.25, -0.5
5085, 12.25, 0, -0.5625
5086, 12.25, 0.25, -0.5625
5087, 12.5, 0, -0.5
5088, 12.5, 0.25, -0.5
5089, 12.375, 0, -0.5
5090, 12.5, 0.125, -0.5
5091, 12.375, 0.25, -0.5
5092, 12.5, 0, -0.5625
5093, 12.5, 0.25, -0.5625
5094, 12.75, 0, -0.5
5095, 12.75, 0.25, -0.5
5096, 12.625, 0, -0.5
5097, 12.75, 0.125, -0.5
5098, 12.625, 0.25, -0.5
5099, 12.75, 0, -0.5625
5100, 12.75, 0.25, -0.5625
5101, 13, 0, -0.5
5102, 13, 0.25, -0.5
5103, 12.875, 0, -0.5
5104, 13, 0.125, -0.5
5105, 12.875, 0.25, -0.5
5106, 13, 0, -0.5625
5107, 13, 0.25, -0.5625
5108, 13.25, 0, -0.5
5109, 13.25, 0.25, -0.5
5110, 13.125, 0, -0.5
5111, 13.25, 0.125, -0.5
5112, 13.125, 0.25, -0.5
5113, 13.25, 0, -0.5625
5114, 13.25, 0.25, -0.5625
5115, 13.5, 0, -0.5
5116, 13.5, 0.25, -0.5
5117, 13.375, 0, -0.5
5118, 13.5, 0.125, -0.5
5119, 13.375, 0.25, -0.5
5120, 13.5, 0, -0.5625
5121, 13.5, 0.25, -0.5625
5122, 13.75, 0, -0.5
5123, 13.75, 0.25, -0.5
5124, 13.625, 0, -0.5
5125, 13.75, 0.125, -0.5
5126, 13.625, 0.25, -0.5
5127, 13.75, 0, -0.5625
5128, 13.75, 0.25, -0.5625
5129, 14, 0, -0.5
5130, 14, 0.25, -0.5
5131, 13.875, 0, -0.5
5132, 14, 0.125, -0.5
5133, 13.875, 0.25, -0.5
5134, 14, 0, -0.5625
5135, 14, 0.25, -0.5625
5136, 14.25, 0, -0.5
5137, 14.25, 0.25, -0.5
5138, 14.125, 0, -0.5
5139, 14.25, 0.125, -0.5
5140, 14.125, 0.25, -0.5
5141, 14.25, 0, -0.5625
5142, 14.25, 0.25, -0.5625
5143, 14.5, 0, -0.5
5144, 14.5, 0.25, -0.5
5145, 14.375, 0, -0.5
5146, 14.5, 0.125, -0.5
5147, 14.375, 0.25, -0.5
5148, 14.5, 0, -0.5625
5149, 14.5, 0.25, -0.5625
5150, 14.75, 0, -0.5
5151, 14.75, 0.25, -0.5
5152, 14.625, 0, -0.5
5153, 14.75, 0.125, -0.5
5154, 14.625, 0.25, -0.5
5155, 14.75, 0, -0.5625
5156, 14.75, 0.25, -0.5625
5157, 15, 0, -0.5
5158, 15, 0.25, -0.5
5159, 14.875, 0, -0.5
5160, 15, 0.125, -0.5
5161, 14.875, 0.25, -0.5
5162, 15, 0, -0.5625
5163, 15, 0.25, -0.5625
5164, 15.25, 0, -0.5
5165, 15.25, 0.25, -0.5
5166, 15.125, 0, -0.5
5167, 15.25, 0.125, -0.5
5168, 15.125, 0.25, -0.5
5169, 15.25, 0, -0.5625
5170, 15.25, 0.25, -0.5625
5171, 15.5, 0, -0.5
5172, 15.5, 0.25, -0.5
5173, 15.375, 0, -0.5
5174, 15.5, 0.125, -0.5
5175, 15.375, 0.25, -0.5
5176, 15.5, 0, -0.5625
5177, 15.5, 0.25, -0.5625
5178, 15.75, 0, -0.5
5179, 15.75, 0.25, -0.5
5180, 15.625, 0, -0.5
5181, 15.75, 0.125, -0.5
5182, 15.625, 0.25, -0.5
5183, 15.75, 0, -0.5625
5184, 15.75, 0.25, -0.5625
5185, 16, 0, -0.5
5186, 16, 0.25, -0.5
5187, 15.875, 0, -0.5
5188, 16, 0.125, -0.5
5189, 15.875, 0.25, -0.5
5190, 16, 0, -0.5625
5191, 16, 0.25, -0.5625
5192, 16.25, 0, -0.5
5193, 16.25, 0.25, -0.5
5194, 16.125, 0, -0.5
5195, 16.25, 0.125, -0.5
5196, 16.125, 0.25, -0.5
5197, 16.25, 0, -0.5625
5198, 16.25, 0.25, -0.5625
5199, 16.5, 0, -0.5
5200, 16.5, 0.25, -0.5
5201, 16.375, 0, -0.5
5202, 16.5, 0.125, -0.5
5203, 16.375, 0.25, -0.5
5204, 16.5, 0, -0.5625
5205, 16.5, 0.25, -0.5625
5206, 16.75, 0, -0.5
5207, 16.75, 0.25, -0.5
5208, 16.625, 0, -0.5
5209, 16.75, 0.125, -0.5
5210, 16.625, 0.25, -0.5
5211, 16.75, 0, -0.5625
5212, 16.75, 0.25, -0.5625
5213, 17, 0, -0.5
5214, 17, 0.25, -0.5
5215, 16.875, 0, -0.5
5216, 17, 0.125, -0.5
5217, 16.875, 0.25, -0.5
5218, 17, 0, -0.5625
5219, 17, 0.25, -0.5625
5220, 17.25, 0, -0.5
5221, 17.25, 0.25, -0.5
5222, 17.125, 0, -0.5
5223, 17.25, 0.125, -0.5
5224, 17.125, 0.25, -0.5
5225, 17.25, 0, -0.5625
5226, 17.25, 0.25, -0.5625
5227, 17.5, 0, -0.5
5228, 17.5, 0.25, -0.5
5229, 17.375, 0, -0.5
5230, 17.5, 0.125, -0.5
5231, 17.375, 0.25, -0.5
5232, 17.5, 0, -0.5625
5233, 17.5, 0.25, -0.5625
5234, 17.75, 0, -0.5
5235, 17.75, 0.25, -0.5
5236, 17.625, 0, -0.5
5237, 17.75, 0.125, -0.5
5238, 17.625, 0.25, -0.5
5239, 17.75, 0, -0.5625
5240, 17.75, 0.25, -0.5625
5241, 18, 0, -0.5
5242, 18, 0.25, -0.5
5243, 17.875, 0, -0.5
5244, 18, 0.125, -0.5
5245, 17.875, 0.25, -0.5
5246, 18, 0, -0.5625
5247, 18, 0.25, -0.5625
5248, 18.25, 0, -0.5
5249, 18.25, 0.25, -0.5
5250, 18.125, 0, -0.5
5251, 18.25, 0.125, -0.5
5252, 18.125, 0.25, -0.5
5253, 18.25, 0, -0.5625
5254, 18.25, 0.25, -0.5625
5255, 18.5, 0, -0.5
5256, 18.5, 0.25, -0.5
5257, 18.375, 0, -0.5
5258, 18.5, 0.125, -0.5
5259, 18.375, 0.25, -0.5
5260, 18.5, 0, -0.5625
5261, 18.5, 0.25, -0.5625
5262, 18.75, 0, -0.5
5263, 18.75, 0.25, -0.5
5264, 18.625, 0, -0.5
5265, 18.75, 0.125, -0.5
5266, 18.625, 0.25, -0.5
5267, 18.75, 0, -0.5625
5268, 18.75, 0.25, -0.5625
5269, 19, 0, -0.5
5270, 19, 0.25, -0.5
5271, 18.875, 0, -0.5
5272, 19, 0.125, -0.5
5273, 18.875, 0.25, -0.5
5274, 19, 0, -0.5625
5275, 19, 0.25, -0.5625
5276, 19.25, 0, -0.5
5277, 19.25, 0.25, -0.5
5278, 19.125, 0, -0.5
5279, 19.25, 0.125, -0.5
5280, 19.125, 0.25, -0.5
5281, 19.25, 0, -0.5625
5282, 19.25, 0.25, -0.5625
5283, 19.5, 0, -0.5
5284, 19.5, 0.25, -0.5
5285, 19.375, 0, -0.5
5286, 19.5, 0.125, -0.5
5287, 19.375, 0.25, -0.5
5288, 19.5, 0, -0.5625
5289, 19.5, 0.25, -0.5625
5290, 19.75, 0, -0.5
5291, 19.75, 0.25, -0.5
5292, 19.625, 0, -0.5
5293, 19.75, 0.125, -0.5
5294, 19.625, 0.25, -0.5
5295, 19.75, 0, -0.5625
5296, 19.75, 0.25, -0.5625
5297, 20, 0, -0.5
5298, 20, 0.25, -0.5
5299, 19.875, 0, -0.5
5300, 20, 0.125, -0.5
5301, 19.875, 0.25, -0.5
5302, 20, 0, -0.5625
5303, 20, 0.25, -0.5625
5304, -20, 0, -0.375
5305, -19.75, 0, -0.375
5306, -19.75, 0.25, -0.375
5307, -20, 0.25, -0.375
5308, -19.875, 0, -0.375
5309, -19.75, 0.125, -0.375
5310, -19.875, 0.25, -0.375
5311, -20, 0.125, -0.375
5312, -20, 0, -0.4375
5313, -19.75, 0, -0.4375
5314, -19.75, 0.25, -0.4375
5315, -20, 0.25, -0.4375
5316, -19.5, 0, -0.375
5317, -19.5, 0.25, -0.375
5318, -19.625, 0, -0.375
5319, -19.5, 0.125, -0.375
5320, -19.625, 0.25, -0.375
5321, -19.5, 0, -0.4375
5322, -19.5, 0.25, -0.4375
5323, -19.25, 0, -0.375
5324, -19.25, 0.25, -0.375
5325, -19.375, 0, -0.375
5326, -19.25, 0.125, -0.375
5327, -19.375, 0.25, -0.375
5328, -19.25, 0, -0.4375
5329, -19.25, 0.25, -0.4375
5330, -19, 0, -0.375
5331, -19, 0.25, -0.375
5332, -19.125, 0, -0.375
5333, -19, 0.125, -0.375
5334, -19.125, 0.25, -0.375
5335, -19, 0, -0.4375
5336, -19, 0.25, -0.4375
5337, -18.75, 0, -0.375
5338, -18.75, 0.25, -0.375
5339, -18.875, 0, -0.375
5340, -18.75, 0.125, -0.375
5341, -18.875, 0.25, -0.375
5342, -18.75, 0, -0.4375
5343, -18.75, 0.25, -0.4375
5344, -18.5, 0, -0.375
5345, -18.5, 0.25, -0.375
5346, -18.625, 0, -0.375
5347, -18.5, 0.125, -0.375
5348, -18.625, 0.25, -0.375
5349, -18.5, 0, -0.4375
5350, -18.5, 0.25, -0.4375
5351, -18.25, 0, -0.375
5352, -18.25, 0.25, -0.375
5353, -18.375, 0, -0.375
5354, -18.25, 0.125, -0.375
5355, -18.375, 0.25, -0.375
5356, -18.25, 0, -0.4375
5357, -18.25, 0.25, -0.4375
5358, -18, 0, -0.375
5359, -18, 0.25, -0.375
5360, -18.125, 0, -0.375
5361, -18, 0.125, -0.375
5362, -18.125, 0.25, -0.375
5363, -18, 0, -0.4375
5364, -18, 0.25, -0.4375
5365, -17.75, 0, -0.375
5366, -17.75, 0.25, -0.375
5367, -17.875, 0, -0.375
5368, -17.75, 0.125, -0.375
5369, -17.875, 0.25, -0.375
5370, -17.75, 0, -0.4375
5371, -17.75, 0.25, -0.4375
5372, -17.5, 0, -0.375
5373, -17.5, 0.25, -0.375
5374, -17.625, 0, -0.375
5375, -17.5, 0.125, -0.375
5376, -17.625, 0.25, -0.375
5377, -17.5, 0, -0.4375
5378, -17.5, 0.25, -0.4375
5379, -17.25, 0, -0.375
5380, -17.25, 0.25, -0.375
5381, -17.375, 0, -0.375
5382, -17.25, 0.125, -0.375
5383, -17.375, 0.25, -0.375
5384, -17.25, 0, -0.4375
5385, -17.25, 0.25, -0.4375
5386, -17, 0, -0.375
5387, -17, 0.25, -0.375
5388, -17.125, 0, -0.375
5389, -17, 0.125, -0.375
5390, -17.125, 0.25, -0.375
5391, -17, 0, -0.4375
5392, -17, 0.25, -0.4375
5393, -16.75, 0, -0.375
5394, -16.75, 0.25, -0.375
5395, -16.875, 0, -0.375
5396, -16.75, 0.125, -0.375
5397, -16.875, 0.25, -0.375
5398, -16.75, 0, -0.4375
5399, -16.75, 0.25, -0.4375
5400, -16.5, 0, -0.375
5401, -16.5, 0.25, -0.375
5402, -16.625, 0, -0.375
5403, -16.5, 0.125, -0.375
5404, -16.625, 0.25, -0.375
5405, -16.5, 0, -0.4375
5406, -16.5, 0.25, -0.4375
5407, -16.25, 0, -0.375
5408, -16.25, 0.25, -0.375
5409, -16.375, 0, -0.375
5410, -16.25, 0.125, -0.375
5411, -16.375, 0.25, -0.375
5412, -16.25, 0, -0.4375
5413, -16.25, 0.25, -0.4375
5414, -16, 0, -0.375
5415, -16, 0.25, -0.375
5416, -16.125, 0, -0.375
5417, -16, 0.125, -0.375
5418, -16.125, 0.25, -0.375
5419, -16, 0, -0.4375
5420, -16, 0.25, -0.4375
5421, -15.75, 0, -0.375
5422, -15.75, 0.25, -0.375
5423, -15.875, 0, -0.375
5424, -15.75, 0.125, -0.375
5425, -15.875, 0.25, -0.375
5426, -15.75, 0, -0.4375
5427, -15.75, 0.25, -0.4375
5428, -15.5, 0, -0.375
5429, -15.5, 0.25, -0.375
5430, -15.625, 0, -0.375
5431, -15.5, 0.125, -0.375
5432, -15.625, 0.25, -0.375
5433, -15.5, 0, -0.4375
5434, -15.5, 0.25, -0.4375
5435, -15.25, 0, -0.375
5436, -15.25, 0.25, -0.375
5437, -15.375, 0, -0.375
5438, -15.25, 0.125, -0.375
5439, -15.375, 0.25, -0.375
5440, -15.25, 0, -0.4375
5441, -15.25, 0.25, -0.4375
5442, -15, 0, -0.375
5443, -15, 0.25, -0.375
5444, -15.125, 0, -0.375
5445, -15, 0.125, -0.375
5446, -15.125, 0.25, -0.375
5447, -15, 0, -0.4375
5448, -15, 0.25, -0.4375
5449, -14.75, 0, -0.375
5450, -14.75, 0.25, -0.375
5451, -14.875, 0, -0.375
5452, -14.75, 0.125, -0.375
5453, -14.875, 0.25, -0.375
5454, -14.75, 0, -0.4375
5455, -14.75, 0.25, -0.4375
5456, -14.5, 0, -0.375
5457, -14.5, 0.25, -0.375
5458, -14.625, 0, -0.375
5459, -14.5, 0.125, -0.375
5460, -14.625, 0.25, -0.375
5461, -14.5, 0, -0.4375
5462, -14.5, 0.25, -0.4375
5463, -14.25, 0, -0.375
5464, -14.25, 0.25, -0.375
5465, -14.375, 0, -0.375
5466, -14.25, 0.125, -0.375
5467, -14.375, 0.25, -0.375
5468, -14.25, 0, -0.4375
5469, -14.25, 0.25, -0.4375
5470, -14, 0, -0.375
5471, -14, 0.25, -0.375
5472, -14.125, 0, -0.375
5473, -14, 0.125, -0.375
5474, -14.125, 0.25, -0.375
5475, -14, 0, -0.4375
5476, -14, 0.25, -0.4375
5477, -13.75, 0, -0.375
5478, -13.75, 0.25, -0.375
5479, -13.875, 0, -0.375
5480, -13.75, 0.125, -0.375
5481, -13.875, 0.25, -0.375
5482, -13.75, 0, -0.4375
5483, -13.75, 0.25, -0.4375
5484, -13.5, 0, -0.375
5485, -13.5, 0.25, -0.375
5486, -13.625, 0, -0.375
5487, -13.5, 0.125, -0.375
5488, -13.625, 0.25, -0.375
5489, -13.5, 0, -0.4375
5490, -13.5, 0.25, -0.4375
5491, -13.25, 0, -0.375
5492, -13.25, 0.25, -0.375
5493, -13.375, 0, -0.375
5494, -13.25, 0.125, -0.375
5495, -13.375, 0.25, -0.375
5496, -13.25, 0, -0.4375
5497, -13.25, 0.25, -0.4375
5498, -13, 0, -0.375
5499, -13, 0.25, -0.375
5500, -13.125, 0, -0.375
5501, -13, 0.125, -0.375
5502, -13.125, 0.25, -0.375
5503, -13, 0, -0.4375
5504, -13, 0.25, -0.4375
5505, -12.75, 0, -0.375
5506, -12.75, 0.25, -0.375
5507, -12.875, 0, -0.375
5508, -12.75, 0.125, -0.375
5509, -12.875, 0.25, -0.375
5510, -12.75, 0, -0.4375
5511, -12.75, 0.25, -0.4375
5512, -12.5, 0, -0.375
5513, -12.5, 0.25, -0.375
5514, -12.625, 0, -0.375
5515, -12.5, 0.125, -0.375
5516, -12.625, 0.25, -0.375
5517, -12.5, 0, -0.4375
5518, -12.5, 0.25, -0.4375
5519, -12.25, 0, -0.375
5520, -12.25, 0.25, -0.375
5521, -12.375, 0, -0.375
5522, -12.25, 0.125, -0.375
5523, -12.375, 0.25, -0.375
5524, -12.25, 0, -0.4375
5525, -12.25, 0.25, -0.4375
5526, -12, 0, -0.375
5527, -12, 0.25, -0.375
5528, -12.125, 0, -0.375
5529, -12, 0.125, -0.375
5530, -12.125, 0.25, -0.375
5531, -12, 0, -0.4375
5532, -12, 0.25, -0.4375
5533, -11.75, 0, -0.375
5534, -11.75, 0.25, -0.375
5535, -11.875, 0, -0.375
5536, -11.75, 0.125, -0.375
5537, -11.875, 0.25, -0.375
5538, -11.75, 0, -0.4375
5539, -11.75, 0.25, -0.4375
5540, -11.5, 0, -0.375
5541, -11.5, 0.25, -0.375
5542, -11.625, 0, -0.375
5543, -11.5, 0.125, -0.375
5544, -11.625, 0.25, -0.375
5545, -11.5, 0, -0.4375
5546, -11.5, 0.25, -0.4375
5547, -11.25, 0, -0.375
5548, -11.25, 0.25, -0.375
5549, -11.375, 0, -0.375
5550, -11.25, 0.125, -0.375
5551, -11.375, 0.25, -0.375
5552, -11.25, 0, -0.4375
5553, -11.25, 0.25, -0.4375
5554, -11, 0, -0.375
5555, -11, 0.25, -0.375
5556, -11.125, 0, -0.375
5557, -11, 0.125, -0.375
5558, -11.125, 0.25, -0.375
5559, -11, 0, -0.4375
5560, -11, 0.25, -0.4375
5561, -10.75, 0, -0.375
5562, -10.75, 0.25, -0.375
5563, -10.875, 0, -0.375
5564, -10.75, 0.125, -0.375
5565, -10.875, 0.25, -0.375
5566, -10.75, 0, -0.4375
5567, -10.75, 0.25, -0.4375
5568, -10.5, 0, -0.375
5569, -10.5, 0.25, -0.375
5570, -10.625, 0, -0.375
5571, -10.5, 0.125, -0.375
5572, -10.625, 0.25, -0.375
5573, -10.5, 0, -0.4375
5574, -10.5, 0.25, -0.4375
5575, -10.25, 0, -0.375
5576, -10.25, 0.25, -0.375
5577, -10.375, 0, -0.375
5578, -10.25, 0.125, -0.375
5579, -10.375, 0.25, -0.375
5580, -10.25, 0, -0.4375
5581, -10.25, 0.25, -0.4375
5582, -10, 0, -0.375
5583, -10, 0.25, -0.375
5584, -10.125, 0, -0.375
5585, -10, 0.125, -0.375
5586, -10.125, 0.25, -0.375
5587, -10, 0, -0.4375
5588, -10, 0.25, -0.4375
5589, -9.75, 0, -0.375
5590, -9.75, 0.25, -0.375
5591, -9.875, 0, -0.375
5592, -9.75, 0.125, -0.375
5593, -9.875, 0.25, -0.375
5594, -9.75, 0, -0.4375
5595, -9.75, 0.25, -0.4375
5596, -9.5, 0, -0.375
5597, -9.5, 0.25, -0.375
5598, -9.625, 0, -0.375
5599, -9.5, 0.125, -0.375
5600, -9.625, 0.25, -0.375
5601, -9.5, 0, -0.4375
5602, -9.5, 0.25, -0.4375
5603, -9.25, 0, -0.375
5604, -9.25, 0.25, -0.375
5605, -9.375, 0, -0.375
5606, -9.25, 0.125, -0.375
5607, -9.375, 0.25, -0.375
5608, -9.25, 0, -0.4375
5609, -9.25, 0.25, -0.4375
5610, -9, 0, -0.375
5611, -9, 0.25, -0.375
5612, -9.125, 0, -0.375
5613, -9, 0.125, -0.375
5614, -9.125, 0.25, -0.375
5615, -9, 0, -0.4375
5616, -9, 0.25, -0.4375
5617, -8.75, 0, -0.375
5618, -8.75, 0.25, -0.375
5619, -8.875, 0, -0.375
5620, -8.75, 0.125, -0.375
5621, -8.875, 0.25, -0.375
5622, -8.75, 0, -0.4375
5623, -8.75, 0.25, -0.4375
5624, -8.5, 0, -0.375
5625, -8.5, 0.25, -0.375
5626, -8.625, 0, -0.375
5627, -8.5, 0.125, -0.375
5628, -8.625, 0.25, -0.375
5629, -8.5, 0, -0.4375
5630, -8.5, 0.25, -0.4375
5631, -8.25, 0, -0.375
5632, -8.25, 0.25, -0.375
5633, -8.375, 0, -0.375
5634, -8.25, 0.125, -0.375
5635, -8.375, 0.25, -0.375
5636, -8.25, 0, -0.4375
5637, -8.25, 0.25, -0.4375
5638, -8, 0, -0.375
5639, -8, 0.25, -0.375
5640, -8.125, 0, -0.375
5641, -8, 0.125, -0.375
5642, -8.125, 0.25, -0.375
5643, -8, 0, -0.4375
5644, -8, 0.25, -0.4375
5645, -7.75, 0, -0.375
5646, -7.75, 0.25, -0.375
5647, -7.875, 0, -0.375
5648, -7.75, 0.125, -0.375
5649, -7.875, 0.25, -0.375
5650, -7.75, 0, -0.4375
5651, -7.75, 0.25, -0.4375
5652, -7.5, 0, -0.375
5653, -7.5, 0.25, -0.375
5654, -7.625, 0, -0.375
5655, -7.5, 0.125, -0.375
5656, -7.625, 0.25, -0.375
5657, -7.5, 0, -0.4375
5658, -7.5, 0.25, -0.4375
5659, -7.25, 0, -0.375
5660, -7.25, 0.25, -0.375
5661, -7.375, 0, -0.375
5662, -7.25, 0.125, -0.375
5663, -7.375, 0.25, -0.375
5664, -7.25, 0, -0.4375
5665, -7.25, 0.25, -0.4375
5666, -7, 0, -0.375
5667, -7, 0.25, -0.375
5668, -7.125, 0, -0.375
5669, -7, 0.125, -0.375
5670, -7.125, 0.25, -0.375
5671, -7, 0, -0.4375
5672, -7, 0.25, -0.4375
5673, -6.75, 0, -0.375
5674, -6.75, 0.25, -0.375
5675, -6.875, 0, -0.375
5676, -6.75, 0.125, -0.375
5677, -6.875, 0.25, -0.375
5678, -6.75, 0, -0.4375
5679, -6.75, 0.25, -0.4375
5680, -6.5, 0, -0.375
5681, -6.5, 0.25, -0.375
5682, -6.625, 0, -0.375
5683, -6.5, 0.125, -0.375
5684, -6.625, 0.25, -0.375
5685, -6.5, 0, -0.4375
5686, -6.5, 0.25, -0.4375
5687, -6.25, 0, -0.375
5688, -6.25, 0.25, -0.375
5689, -6.375, 0, -0.375
5690, -6.25, 0.125, -0.375
5691, -6.375, 0.25, -0.375
5692, -6.25, 0, -0.4375
5693, -6.25, 0.25, -0.4375
5694, -6, 0, -0.375
5695, -6, 0.25, -0.375
5696, -6.125, 0, -0.375
5697, -6, 0.125, -0.375
5698, -6.125, 0.25, -0.375
5699, -6, 0, -0.4375
5700, -6, 0.25, -0.4375
5701, -5.75, 0, -0.375
5702, -5.75, 0.25, -0.375
5703, -5.875, 0, -0.375
5704, -5.75, 0.125, -0.375
5705, -5.875, 0.25, -0.375
5706, -5.75, 0, -0.4375
5707, -5.75, 0.25, -0.4375
5708, -5.5, 0, -0.375
5709, -5.5, 0.25, -0.375
5710, -5.625, 0, -0.375
5711, -5.5, 0.125, -0.375
5712, -5.625, 0.25, -0.375
5713, -5.5, 0, -0.4375
5714, -5.5, 0.25, -0.4375
5715, -5.25, 0, -0.375
5716, -5.25, 0.25, -0.375
5717, -5.375, 0, -0.375
5718, -5.25, 0.125, -0.375
5719, -5.375, 0.25, -0.375
5720, -5.25, 0, -0.4375
5721, -5.25, 0.25, -0.4375
5722, -5, 0, -0.375
5723, -5, 0.25, -0.375
5724, -5.125, 0, -0.375
5725, -5, 0.125, -0.375
5726, -5.125, 0.25, -0.375
5727, -5, 0, -0.4375
5728, -5, 0.25, -0.4375
5729, -4.75, 0, -0.375
5730, -4.75, 0.25, -0.375
5731, -4.875, 0, -0.375
5732, -4.75, 0.125, -0.375
5733, -4.875, 0.25, -0.375
5734, -4.75, 0, -0.4375
5735, -4.75, 0.25, -0.4375
5736, -4.5, 0, -0.375
5737, -4.5, 0.25, -0.375
5738, -4.625, 0, -0.375
5739, -4.5, 0.125, -0.375
5740, -4.625, 0.25, -0.375
5741, -4.5, 0, -0.4375
5742, -4.5, 0.25, -0.4375
5743, -4.25, 0, -0.375
5744, -4.25, 0.25, -0.375
5745, -4.375, 0, -0.375
5746, -4.25, 0.125, -0.375
5747, -4.375, 0.25, -0.375
5748, -4.25, 0, -0.4375
5749, -4.25, 0.25, -0.4375
5750, -4, 0, -0.375
5751, -4, 0.25, -0.375
5752, -4.125, 0, -0.375
5753, -4, 0.125, -0.375
5754, -4.125, 0.25, -0.375
5755, -4, 0, -0.4375
5756, -4, 0.25, -0.4375
5757, -3.75, 0, -0.375
5758, -3.75, 0.25, -0.375
5759, -3.875, 0, -0.375
5760, -3.75, 0.125, -0.375
5761, -3.875, 0.25, -0.375
5762, -3.75, 0, -0.4375
5763, -3.75, 0.25, -0.4375
5764, -3.5, 0, -0.375
5765, -3.5, 0.25, -0.375
5766, -3.625, 0, -0.375
5767, -3.5, 0.125, -0.375
5768, -3.625, 0.25, -0.375
5769, -3.5, 0, -0.4375
5770, -3.5, 0.25, -0.4375
5771, -3.25, 0, -0.375
5772, -3.25, 0.25, -0.375
5773, -3.375, 0, -0.375
5774, -3.25, 0.125, -0.375
5775, -3.375, 0.25, -0.375
5776, -3.25, 0, -0.4375
5777, -3.25, 0.25, -0.4375
5778, -3, 0, -0.375
5779, -3, 0.25, -0.375
5780, -3.125, 0, -0.375
5781, -3, 0.125, -0.375
5782, -3.125, 0.25, -0.375
5783, -3, 0, -0.4375
5784, -3, 0.25, -0.4375
5785, -2.75, 0, -0.375
5786, -2.75, 0.25, -0.375
5787, -2.875, 0, -0.375
5788, -2.75, 0.125, -0.375
5789, -2.875, 0.25, -0.375
5790, -2.75, 0, -0.4375
5791, -2.75, 0.25, -0.4375
5792, -2.5, 0, -0.375
5793, -2.5, 0.25, -0.375
5794, -2.625, 0, -0.375
5795, -2.5, 0.125, -0.375
5796, -2.625, 0.25, -0.375
5797, -2.5, 0, -0.4375
5798, -2.5, 0.25, -0.4375
5799, -2.25, 0, -0.375
5800, -2.25, 0.25, -0.375
5801, -2.375, 0, -0.375
5802, -2.25, 0.125, -0.375
5803, -2.375, 0.25, -0.375
5804, -2.25, 0, -0.4375
5805, -2.25, 0.25, -0.4375
5806, -2, 0, -0.375
5807, -2, 0.25, -0.375
5808, -2.125, 0, -0.375
5809, -2, 0.125, -0.375
5810, -2.125, 0.25, -0.375
5811, -2, 0, -0.4375
5812, -2, 0.25, -0.4375
5813, -1.75, 0, -0.375
5814, -1.75, 0.25, -0.375
5815, -1.875, 0, -0.375
5816, -1.75, 0.125, -0.375
5817, -1.875, 0.25, -0.375
5818, -1.75, 0, -0.4375
5819, -1.75, 0.25, -0.4375
5820, -1.5, 0, -0.375
5821, -1.5, 0.25, -0.375
5822, -1.625, 0, -0.375
5823, -1.5, 0.125, -0.375
5824, -1.625, 0.25, -0.375
5825, -1.5, 0, -0.4375
5826, -1.5, 0.25, -0.4375
5827, -1.25, 0, -0.375
5828, -1.25, 0.25, -0.375
5829, -1.375, 0, -0.375
5830, -1.25, 0.125, -0.375
5831, -1.375, 0.25, -0.375
5832, -1.25, 0, -0.4375
5833, -1.25, 0.25, -0.4375
5834, -1, 0, -0.375
5835, -1, 0.25, -0.375
5836, -1.125, 0, -0.375
5837, -1, 0.125, -0.375
5838, -1.125, 0.25, -0.375
5839, -1, 0, -0.4375
5840, -1, 0.25, -0.4375
5841, -0.75, 0, -0.375
5842, -0.75, 0.25, -0.375
5843, -0.875, 0, -0.375
5844, -0.75, 0.125, -0.375
5845, -0.875, 0.25, -0.375
5846, -0.75, 0, -0.4375
5847, -0.75, 0.25, -0.4375
5848, -0.5, 0, -0.375
5849, -0.5, 0.25, -0.375
5850, -0.625, 0, -0.375
5851, -0.5, 0.125, -0.375
5852, -0.625, 0.25, -0.375
5853, -0.5, 0, -0.4375
5854, -0.5, 0.25, -0.4375
5855, -0.25, 0, -0.375
5856, -0.25, 0.25, -0.375
5857, -0.375, 0, -0.375
5858, -0.25, 0.125, -0.375
5859, -0.375, 0.25, -0.375
5860, -0.25, 0, -0.4375
5861, -0.25, 0.25, -0.4375
5862, 0, 0, -0.375
5863, 0, 0.25, -0.375
5864, -0.125, 0, -0.375
5865, 0, 0.125, -0.375
5866, -0.125, 0.25, -0.375
5867, 0, 0, -0.4375
5868, 0, 0.25, -0.4375
5869, 0.25, 0, -0.375
5870, 0.25, 0.25, -0.375
5871, 0.125, 0, -0.375
5872, 0.25, 0.125, -0.375
5873, 0.125, 0.25, -0.375
5874, 0.25, 0, -0.4375
5875, 0.25, 0.25, -0.4375
5876, 0.5, 0, -0.375
5877, 0.5, 0.25, -0.375
5878, 0.375, 0, -0.375
5879, 0.5, 0.125, -0.375
5880, 0.375, 0.25, -0.375
5881, 0.5, 0, -0.4375
5882, 0.5, 0.25, -0.4375
5883, 0.75, 0, -0.375
5884, 0.75, 0.25, -0.375
5885, 0.625, 0, -0.375
5886, 0.75, 0.125, -0.375
5887, 0.625, 0.25, -0.375
5888, 0.75, 0, -0.4375
5889, 0.75, 0.25, -0.4375
5890, 1, 0, -0.375
5891, 1, 0.25, -0.375
5892, 0.875, 0, -0.375
5893, 1, 0.125, -0.375
5894, 0.875, 0.25, -0.375
5895, 1, 0, -0.4375
5896, 1, 0.25, -0.4375
5897, 1.25, 0, -0.375
5898, 1.25, 0.25, -0.375
5899, 1.125, 0, -0.375
5900, 1.25, 0.125, -0.375
5901, 1.125, 0.25, -0.375
5902, 1.25, 0, -0.4375
5903, 1.25, 0.25, -0.4375
5904, 1.5, 0, -0.375
5905, 1.5, 0.25, -0.375
5906, 1.375, 0, -0.375
5907, 1.5, 0.125, -0.375
5908, 1.375, 0.25, -0.375
5909, 1.5, 0, -0.4375
5910, 1.5, 0.25, -0.4375
5911, 1.75, 0, -0.375
5912, 1.75, 0.25, -0.375
5913, 1.625, 0, -0.375
5914, 1.75, 0.125, -0.375
5915, 1.625, 0.25, -0.375
5916, 1.75, 0, -0.4375
5917, 1.75, 0.25, -0.4375
5918, 2, 0, -0.375
5919, 2, 0.25, -0.375
5920, 1.875, 0, -0.375
5921, 2, 0.125, -0.375
5922, 1.875, 0.25, -0.375
5923, 2, 0, -0.4375
5924, 2, 0.25, -0.4375
5925, 2.25, 0, -0.375
5926, 2.25, 0.25, -0.375
5927, 2.125, 0, -0.375
5928, 2.25, 0.125, -0.375
5929, 2.125, 0.25, -0.375
5930, 2.25, 0, -0.4375
5931, 2.25, 0.25, -0.4375
5932, 2.5, 0, -0.375
5933, 2.5, 0.25, -0.375
5934, 2.375, 0, -0.375
5935, 2.5, 0.125, -0.375
5936, 2.375, 0.25, -0.375
5937, 2.5, 0, -0.4375
5938, 2.5, 0.25, -0.4375
5939, 2.75, 0, -0.375
5940, 2.75, 0.25, -0.375
5941, 2.625, 0, -0.375
5942, 2.75, 0.125, -0.375
5943, 2.625, 0.25, -0.375
5944, 2.75, 0, -0.4375
5945, 2.75, 0.25, -0.4375
5946, 3, 0, -0.375
5947, 3, 0.25, -0.375
5948, 2.875, 0, -0.375
5949, 3, 0.125, -0.375
5950, 2.875, 0.25, -0.375
5951, 3, 0, -0.4375
5952, 3, 0.25, -0.4375
5953, 3.25, 0, -0.375
5954, 3.25, 0.25, -0.375
5955, 3.125, 0, -0.375
5956, 3.25, 0.125, -0.375
5957, 3.125, 0.25, -0.375
5958, 3.25, 0, -0.4375
5959, 3.25, 0.25, -0.4375
5960, 3.5, 0, -0.375
5961, 3.5, 0.25, -0.375
5962, 3.375, 0, -0.375
5963, 3.5, 0.125, -0.375
5964, 3.375, 0.25, -0.375
5965, 3.5, 0, -0.4375
5966, 3.5, 0.25, -0.4375
5967, 3.75, 0, -0.375
5968, 3.75, 0.25, -0.375
5969, 3.625, 0, -0.375
5970, 3.75, 0.125, -0.375
5971, 3.625, 0.25, -0.375
5972, 3.75, 0, -0.4375
5973, 3.75, 0.25, -0.4375
5974, 4, 0, -0.375
5975, 4, 0.25, -0.375
5976, 3.875, 0, -0.375
5977, 4, 0.125, -0.375
5978, 3.875, 0.25, -0.375
5979, 4, 0, -0.4375
5980, 4, 0.25, -0.4375
5981, 4.25, 0, -0.375
5982, 4.25, 0.25, -0.375
5983, 4.125, 0, -0.375
5984, 4.25, 0.125, -0.375
5985, 4.125, 0.25, -0.375
5986, 4.25, 0, -0.4375
5987, 4.25, 0.25, -0.4375
5988, 4.5, 0, -0.375
5989, 4.5, 0.25, -0.375
5990, 4.375, 0, -0.375
5991, 4.5, 0.125, -0.375
5992, 4.375, 0.25, -0.375
5993, 4.5, 0, -0.4375
5994, 4.5, 0.25, -0.4375
5995, 4.75, 0, -0.375
5996, 4.75, 0.25, -0.375
5997, 4.625, 0, -0.375
5998, 4.75, 0.125, -0.375
5999, 4.625, 0.25, -0.375
6000, 4.75, 0, -0.4375
6001, 4.75, 0.25, -0.4375
6002, 5, 0, -0.375
6003, 5, 0.25, -0.375
6004, 4.875, 0, -0.375
6005, 5, 0.125, -0.375
6006, 4.875, 0.25, -0.375
6007, 5, 0, -0.4375
6008, 5, 0.25, -0.4375
6009, 5.25, 0, -0.375
6010, 5.25, 0.25, -0.375
6011, 5.125, 0, -0.375
6012, 5.25, 0.125, -0.375
6013, 5.125, 0.25, -0.375
6014, 5.25, 0, -0.4375
6015, 5.25, 0.25, -0.4375
6016, 5.5, 0, -0.375
6017, 5.5, 0.25, -0.375
6018, 5.375, 0, -0.375
6019, 5.5, 0.125, -0.375
6020, 5.375, 0.25, -0.375
6021, 5.5, 0, -0.4375
6022, 5.5, 0.25, -0.4375
6023, 5.75, 0, -0.375
6024, 5.75, 0.25, -0.375
6025, 5.625, 0, -0.375
6026, 5.75, 0.125, -0.375
6027, 5.625, 0.25, -0.375
6028, 5.75, 0, -0.4375
6029, 5.75, 0.25, -0.4375
6030, 6, 0, -0.375
6031, 6, 0.25, -0.375
6032, 5.875, 0, -0.375
6033, 6, 0.125, -0.375
6034, 5.875, 0.25, -0.375
6035, 6, 0, -0.4375
6036, 6, 0.25, -0.4375
6037, 6.25, 0, -0.375
6038, 6.25, 0.25, -0.375
6039, 6.125, 0, -0.375
6040, 6.25, 0.125, -0.375
6041, 6.125, 0.25, -0.375
6042, 6.25, 0, -0.4375
6043, 6.25, 0.25, -0.4375
6044, 6.5, 0, -0.375
6045, 6.5, 0.25, -0.375
6046, 6.375, 0, -0.375
6047, 6.5, 0.125, -0.375
6048, 6.375, 0.25, -0.375
6049, 6.5, 0, -0.4375
6050, 6.5, 0.25, -0.4375
6051, 6.75, 0, -0.375
6052, 6.75, 0.25, -0.375
6053, 6.625, 0, -0.375
6054, 6.75, 0.125, -0.375
6055, 6.625, 0.25, -0.375
6056, 6.75, 0, -0.4375
6057, 6.75, 0.25, -0.4375
6058, 7, 0, -0.375
6059, 7, 0.25, -0.375
6060, 6.875, 0, -0.375
6061, 7, 0.125, -0.375
6062, 6.875, 0.25, -0.375
6063, 7, 0, -0.4375
6064, 7, 0.25, -0.4375
6065, 7.25, 0, -0.375
6066, 7.25, 0.25, -0.375
6067, 7.125, 0, -0.375
6068, 7.25, 0.125, -0.375
6069, 7.125, 0.25, -0.375
6070, 7.25, 0, -0.4375
6071, 7.25, 0.25, -0.4375
6072, 7.5, 0, -0.375
6073, 7.5, 0.25, -0.375
6074, 7.375, 0, -0.375
6075, 7.5, 0.125, -0.375
6076, 7.375, 0.25, -0.375
6077, 7.5, 0, -0.4375
6078, 7.5, 0.25, -0.4375
6079, 7.75, 0, -0.375
6080, 7.75, 0.25, -0.375
6081, 7.625, 0, -0.375
6082, 7.75, 0.125, -0.375
6083, 7.625, 0.25, -0.375
6084, 7.75, 0, -0.4375
6085, 7.75, 0.25, -0.4375
6086, 8, 0, -0.375
6087, 8, 0.25, -0.375
6088, 7.875, 0, -0.375
6089, 8, 0.125, -0.375
6090, 7.875, 0.25, -0.375
6091, 8, 0, -0.4375
6092, 8, 0.25, -0.4375
6093, 8.25, 0, -0.375
6094, 8.25, 0.25, -0.375
6095, 8.125, 0, -0.375
6096, 8.25, 0.125, -0.375
6097, 8.125, 0.25, -0.375
6098, 8.25, 0, -0.4375
6099, 8.25, 0.25, -0.4375
6100, 8.5, 0, -0.375
6101, 8.5, 0.25, -0.375
6102, 8.375, 0, -0.375
6103, 8.5, 0.125, -0.375
6104, 8.375, 0.25, -0.375
6105, 8.5, 0, -0.4375
6106, 8.5, 0.25, -0.4375
6107, 8.75, 0, -0.375
6108, 8.75, 0.25, -0.375
6109, 8.625, 0, -0.375
6110, 8.75, 0.125, -0.375
6111, 8.625, 0.25, -0.375
6112, 8.75, 0, -0.4375
6113, 8.75, 0.25, -0.4375
6114, 9, 0, -0.375
6115, 9, 0.25, -0.375
6116, 8.875, 0, -0.375
6117, 9, 0.125, -0.375
6118, 8.875, 0.25, -0.375
6119, 9, 0, -0.4375
6120, 9, 0.25, -0.4375
6121, 9.25, 0, -0.375
6122, 9.25, 0.25, -0.375
6123, 9.125, 0, -0.375
6124, 9.25, 0.125, -0.375
6125, 9.125, 0.25, -0.375
6126, 9.25, 0, -0.4375
6127, 9.25, 0.25, -0.4375
6128, 9.5, 0, -0.375
6129, 9.5, 0.25, -0.375
6130, 9.375, 0, -0.375
6131, 9.5, 0.125, -0.375
6132, 9.375, 0.25, -0.375
6133, 9.5, 0, -0.4375
6134, 9.5, 0.25, -0.4375
6135, 9.75, 0, -0.375
6136, 9.75, 0.25, -0.375
6137, 9.625, 0, -0.375
6138, 9.75, 0.125, -0.375
6139, 9.625, 0.25, -0.375
6140, 9.75, 0, -0.4375
6141, 9.75, 0.25, -0.4375
6142, 10, 0, -0.375
6143, 10, 0.25, -0.375
6144, 9.875, 0, -0.375
6145, 10, 0.125, -0.375
6146, 9.875, 0.25, -0.375
6147, 10, 0, -0.4375
6148, 10, 0.25, -0.4375
6149, 10.25, 0, -0.375
6150, 10.25, 0.25, -0.375
6151, 10.125, 0, -0.375
6152, 10.25, 0.125, -0.375
6153, 10.125, 0.25, -0.375
6154, 10.25, 0, -0.4375
6155, 10.25, 0.25, -0.4375
6156, 10.5, 0, -0.375
6157, 10.5, 0.25, -0.375
6158, 10.375, 0, -0.375
6159, 10.5, 0.125, -0.375
6160, 10.375, 0.25, -0.375
6161, 10.5, 0, -0.4375
6162, 10.5, 0.25, -0.4375
6163, 10.75, 0, -0.375
6164, 10.75, 0.25, -0.375
6165, 10.625, 0, -0.375
6166, 10.75, 0.125, -0.375
6167, 10.625, 0.25, -0.375
6168, 10.75, 0, -0.4375
6169, 10.75, 0.25, -0.4375
6170, 11, 0, -0.375
6171, 11, 0.25, -0.375
6172, 10.875, 0, -0.375
6173, 11, 0.125, -0.375
6174, 10.875, 0.25, -0.375
6175, 11, 0, -0.4375
6176, 11, 0.25, -0.4375
6177, 11.25, 0, -0.375
6178, 11.25, 0.25, -0.375
6179, 11.125, 0, -0.375
6180, 11.25, 0.125, -0.375
6181, 11.125, 0.25, -0.375
6182, 11.25, 0, -0.4375
6183, 11.25, 0.25, -0.4375
6184, 11.5, 0, -0.375
6185, 11.5, 0.25, -0.375
6186, 11.375, 0, -0.375
6187, 11.5, 0.125, -0.375
6188, 11.375, 0.25, -0.375
6189, 11.5, 0, -0.4375
6190, 11.5, 0.25, -0.4375
6191, 11.75, 0, -0.375
6192, 11.75, 0.25, -0.375
6193, 11.625, 0, -0.375
6194, 11.75, 0.125, -0.375
6195, 11.625, 0.25, -0.375
6196, 11.75, 0, -0.4375
6197, 11.75, 0.25, -0.4375
6198, 12, 0, -0.375
6199, 12, 0.25, -0.375
6200, 11.875, 0, -0.375
6201, 12, 0.125, -0.375
6202, 11.875, 0.25, -0.375
6203, 12, 0, -0.4375
6204, 12, 0.25, -0.4375
6205, 12.25, 0, -0.375
6206, 12.25, 0.25, -0.375
6207, 12.125, 0, -0.375
6208, 12.25, 0.125, -0.375
6209, 12.125, 0.25, -0.375
6210, 12.25, 0, -0.4375
6211, 12.25, 0.25, -0.4375
6212, 12.5, 0, -0.375
6213, 12.5, 0.25, -0.375
6214, 12.375, 0, -0.375
6215, 12.5, 0.125, -0.375
6216, 12.375, 0.25, -0.375
6217, 12.5, 0, -0.4375
6218, 12.5, 0.25, -0.4375
6219, 12.75, 0, -0.375
6220, 12.75, 0.25, -0.375
6221, 12.625, 0, -0.375
6222, 12.75, 0.125, -0.375
6223, 12.625, 0.25, -0.375
6224, 12.75, 0, -0.4375
6225, 12.75, 0.25, -0.4375
6226, 13, 0, -0.375
6227, 13, 0.25, -0.375
6228, 12.875, 0, -0.375
6229, 13, 0.125, -0.375
6230, 12.875, 0.25, -0.375
6231, 13, 0, -0.4375
6232, 13, 0.25, -0.4375
6233, 13.25, 0, -0.375
6234, 13.25, 0.25, -0.375
6235, 13.125, 0, -0.375
6236, 13.25, 0.125, -0.375
6237, 13.125, 0.25, -0.375
6238, 13.25, 0, -0.4375
6239, 13.25, 0.25, -0.4375
6240, 13.5, 0, -0.375
6241, 13.5, 0.25, -0.375
6242, 13.375, 0, -0.375
6243, 13.5, 0.125, -0.375
6244, 13.375, 0.25, -0.375
6245, 13.5, 0, -0.4375
6246, 13.5, 0.25, -0.4375
6247, 13.75, 0, -0.375
6248, 13.75, 0.25, -0.375
6249, 13.625, 0, -0.375
6250, 13.75, 0.125, -0.375
6251, 13.625, 0.25, -0.375
6252, 13.75, 0, -0.4375
6253, 13.75, 0.25, -0.4375
6254, 14, 0, -0.375
6255, 14, 0.25, -0.375
6256, 13.875, 0, -0.375
6257, 14, 0.125, -0.375
6258, 13.875, 0.25, -0.375
6259, 14, 0, -0.4375
6260, 14, 0.25, -0.4375
6261, 14.25, 0, -0.375
6262, 14.25, 0.25, -0.375
6263, 14.125, 0, -0.375
6264, 14.25, 0.125, -0.375
6265, 14.125, 0.25, -0.375
6266, 14.25, 0, -0.4375
6267, 14.25, 0.25, -0.4375
6268, 14.5, 0, -0.375
6269, 14.5, 0.25, -0.375
6270, 14.375, 0, -0.375
6271, 14.5, 0.125, -0.375
6272, 14.375, 0.25, -0.375
6273, 14.5, 0, -0.4375
6274, 14.5, 0.25, -0.4375
6275, 14.75, 0, -0.375
6276, 14.75, 0.25, -0.375
6277, 14.625, 0, -0.375
6278, 14.75, 0.125, -0.375
6279, 14.625, 0.25, -0.375
6280, 14.75, 0, -0.4375
6281, 14.75, 0.25, -0.4375
6282, 15, 0, -0.375
6283, 15, 0.25, -0.375
6284, 14.875, 0, -0.375
6285, 15, 0.125, -0.375
6286, 14.875, 0.25, -0.375
6287, 15, 0, -0.4375
6288, 15, 0.25, -0.4375
6289, 15.25, 0, -0.375
6290, 15.25, 0.25, -0.375
6291, 15.125, 0, -0.375
6292, 15.25, 0.125, -0.375
6293, 15.125, 0.25, -0.375
6294, 15.25, 0, -0.4375
6295, 15.25, 0.25, -0.4375
6296, 15.5, 0, -0.375
6297, 15.5, 0.25, -0.375
6298, 15.375, 0, -0.375
6299, 15.5, 0.125, -0.375
6300, 15.375, 0.25, -0.375
6301, 15.5, 0, -0.4375
6302, 15.5, 0.25, -0.4375
6303, 15.75, 0, -0.375
6304, 15.75, 0.25, -0.375
6305, 15.625, 0, -0.375
6306, 15.75, 0.125, -0.375
6307, 15.625, 0.25, -0.375
6308, 15.75, 0, -0.4375
6309, 15.75, 0.25, -0.4375
6310, 16, 0, -0.375
6311, 16, 0.25, -0.375
6312, 15.875, 0, -0.375
6313, 16, 0.125, -0.375
6314, 15.875, 0.25, -0.375
6315, 16, 0, -0.4375
6316, 16, 0.25, -0.4375
6317, 16.25, 0, -0.375
6318, 16.25, 0.25, -0.375
6319, 16.125, 0, -0.375
6320, 16.25, 0.125, -0.375
6321, 16.125, 0.25, -0.375
6322, 16.25, 0, -0.4375
6323, 16.25, 0.25, -0.4375
6324, 16.5, 0, -0.375
6325, 16.5, 0.25, -0.375
6326, 16.375, 0, -0.375
6327, 16.5, 0.125, -0.375
6328, 16.375, 0.25, -0.375
6329, 16.5, 0, -0.4375
6330, 16.5, 0.25, -0.4375
6331, 16.75, 0, -0.375
6332, 16.75, 0.25, -0.375
6333, 16.625, 0, -0.375
6334, 16.75, 0.125, -0.375
6335, 16.625, 0.25, -0.375
6336, 16.75, 0, -0.4375
6337, 16.75, 0.25, -0.4375
6338, 17, 0, -0.375
6339, 17, 0.25, -0.375
6340, 16.875, 0, -0.375
6341, 17, 0.125, -0.375
6342, 16.875, 0.25, -0.375
6343, 17, 0, -0.4375
6344, 17, 0.25, -0.4375
6345, 17.25, 0, -0.375
6346, 17.25, 0.25, -0.375
6347, 17.125, 0, -0.375
6348, 17.25, 0.125, -0.375
6349, 17.125, 0.25, -0.375
6350, 17.25, 0, -0.4375
6351, 17.25, 0.25, -0.4375
6352, 17.5, 0, -0.375
6353, 17.5, 0.25, -0.375
6354, 17.375, 0, -0.375
6355, 17.5, 0.125, -0.375
6356, 17.375, 0.25, -0.375
6357, 17.5, 0, -0.4375
6358, 17.5, 0.25, -0.4375
6359, 17.75, 0, -0.375
6360, 17.75, 0.25, -0.375
6361, 17.625, 0, -0.375
6362, 17.75, 0.125, -0.375
6363, 17.625, 0.25, -0.375
6364, 17.75, 0, -0.4375
6365, 17.75, 0.25, -0.4375
6366, 18, 0, -0.375
6367, 18, 0.25, -0.375
6368, 17.875, 0, -0.375
6369, 18, 0.125, -0.375
6370, 17.875, 0.25, -0.375
6371, 18, 0, -0.4375
6372, 18, 0.25, -0.4375
6373, 18.25, 0, -0.375
6374, 18.25, 0.25, -0.375
6375, 18.125, 0, -0.375
6376, 18.25, 0.125, -0.375
6377, 18.125, 0.25, -0.375
6378, 18.25, 0, -0.4375
6379, 18.25, 0.25, -0.4375
6380, 18.5, 0, -0.375
6381, 18.5, 0.25, -0.375
6382, 18.375, 0, -0.375
6383, 18.5, 0.125, -0.375
6384, 18.375, 0.25, -0.375
6385, 18.5, 0, -0.4375
6386, 18.5, 0.25, -0.4375
6387, 18.75, 0, -0.375
6388, 18.75, 0.25, -0.375
6389, 18.625, 0, -0.375
6390, 18.75, 0.125, -0.375
6391, 18.625, 0.25, -0.375
6392, 18.75, 0, -0.4375
6393, 18.75, 0.25, -0.4375
6394, 19, 0, -0.375
6395, 19, 0.25, -0.375
6396, 18.875, 0, -0.375
6397, 19, 0.125, -0.375
6398, 18.875, 0.25, -0.375
6399, 19, 0, -0.4375
6400, 19, 0.25, -0.4375
6401, 19.25, 0, -0.375
6402, 19.25, 0.25, -0.375
6403, 19.125, 0, -0.375
6404, 19.25, 0.125, -0.375
6405, 19.125, 0.25, -0.375
6406, 19.25, 0, -0.4375
6407, 19.25, 0.25, -0.4375
6408, 19.5, 0, -0.375
6409, 19.5, 0.25, -0.375
6410, 19.375, 0, -0.375
6411, 19.5, 0.125, -0.375
6412, 19.375, 0.25, -0.375
6413, 19.5, 0, -0.4375
6414, 19.5, 0.25, -0.4375
6415, 19.75, 0, -0.375
6416, 19.75, 0.25, -0.375
6417, 19.625, 0, -0.375
6418, 19.75, 0.125, -0.375
6419, 19.625, 0.25, -0.375
6420, 19.75, 0, -0.4375
6421, 19.75, 0.25, -0.4375
6422, 20, 0, -0.375
6423, 20, 0.25, -0.375
6424, 19.875, 0, -0.375
6425, 20, 0.125, -0.375
6426, 19.875, 0.25, -0.375
6427, 20, 0, -0.4375
6428, 20, 0.25, -0.4375
6429, -20, 0, -0.25
6430, -19.75, 0, -0.25
6431, -19.75, 0.25, -0.25
6432, -20, 0.25, -0.25
6433, -19.875, 0, -0.25
6434, -19.75, 0.125, -0.25
6435, -19.875, 0.25, -0.25
6436, -20, 0.125, -0.25
6437, -20, 0, -0.3125
6438, -19.75, 0, -0.3125
6439, -19.75, 0.25, -0.3125
6440, -20, 0.25, -0.3125
6441, -19.5, 0, -0.25
6442, -19.5, 0.25, -0.25
6443, -19.625, 0, -0.25
6444, -19.5, 0.125, -0.25
6445, -19.625, 0.25, -0.25
6446, -19.5, 0, -0.3125
6447, -19.5, 0.25, -0.3125
6448, -19.25, 0, -0.25
6449, -19.25, 0.25, -0.25
6450, -19.375, 0, -0.25
6451, -19.25, 0.125, -0.25
6452, -19.375, 0.25, -0.25
6453, -19.25, 0, -0.3125
6454, -19.25, 0.25, -0.3125
6455, -19, 0, -0.25
6456, -19, 0.25, -0.25
6457, -19.125, 0, -0.25
6458, -19, 0.125, -0.25
6459, -19.125, 0.25, -0.25
6460, -19, 0, -0.3125
6461, -19, 0.25, -0.3125
6462, -18.75, 0, -0.25
6463, -18.75, 0.25, -0.25
6464, -18.875, 0, -0.25
6465, -18.75, 0.125, -0.25
6466, -18.875, 0.25, -0.25
6467, -18.75, 0, -0.3125
6468, -18.75, 0.25, -0.3125
6469, -18.5, 0, -0.25
6470, -18.5, 0.25, -0.25
6471, -18.625, 0, -0.25
6472, -18.5, 0.125, -0.25
6473, -18.625, 0.25, -0.25
6474, -18.5, 0, -0.3125
6475, -18.5, 0.25, -0.3125
6476, -18.25, 0, -0.25
6477, -18.25, 0.25, -0.25
6478, -18.375, 0, -0.25
6479, -18.25, 0.125, -0.25
6480, -18.375, 0.25, -0.25
6481, -18.25, 0, -0.3125
6482, -18.25, 0.25, -0.3125
6483, -18, 0, -0.25
6484, -18, 0.25, -0.25
6485, -18.125, 0, -0.25
6486, -18, 0.125, -0.25
6487, -18.125, 0.25, -0.25
6488, -18, 0, -0.3125
6489, -18, 0.25, -0.3125
6490, -17.75, 0, -0.25
6491, -17.75, 0.25, -0.25
6492, -17.875, 0, -0.25
6493, -17.75, 0.125, -0.25
6494, -17.875, 0.25, -0.25
6495, -17.75, 0, -0.3125
6496, -17.75, 0.25, -0.3125
6497, -17.5, 0, -0.25
6498, -17.5, 0.25, -0.25
6499, -17.625, 0, -0.25
6500, -17.5, 0.125, -0.25
6501, -17.625, 0.25, -0.25
6502, -17.5, 0, -0.3125
6503, -17.5, 0.25, -0.3125
6504, -17.25, 0, -0.25
6505, -17.25, 0.25, -0.25
6506, -17.375, 0, -0.25
6507, -17.25, 0.125, -0.25
6508, -17.375, 0.25, -0.25
6509, -17.25, 0, -0.3125
6510, -17.25, 0.25, -0.3125
6511, -17, 0, -0.25
6512, -17, 0.25, -0.25
6513, -17.125, 0, -0.25
6514, -17, 0.125, -0.25
6515, -17.125, 0.25, -0.25
6516, -17, 0, -0.3125
6517, -17, 0.25, -0.3125
6518, -16.75, 0, -0.25
6519, -16.75, 0.25, -0.25
6520, -16.875, 0, -0.25
6521, -16.75, 0.125, -0.25
6522, -16.875, 0.25, -0.25
6523, -16.75, 0, -0.3125
6524, -16.75, 0.25, -0.3125
6525, -16.5, 0, -0.25
6526, -16.5, 0.25, -0.25
6527, -16.625, 0, -0.25
6528, -16.5, 0.125, -0.25
6529, -16.625, 0.25, -0.25
6530, -16.5, 0, -0.3125
6531, -16.5, 0.25, -0.3125
6532, -16.25, 0, -0.25
6533, -16.25, 0.25, -0.25
6534, -16.375, 0, -0.25
6535, -16.25, 0.125, -0.25
6536, -16.375, 0.25, -0.25
6537, -16.25, 0, -0.3125
6538, -16.25, 0.25, -0.3125
6539, -16, 0, -0.25
6540, -16, 0.25, -0.25
6541, -16.125, 0, -0.25
6542, -16, 0.125, -0.25
6543, -16.125, 0.25, -0.25
6544, -16, 0, -0.3125
6545, -16, 0.25, -0.3125
6546, -15.75, 0, -0.25
6547, -15.75, 0.25, -0.25
6548, -15.875, 0, -0.25
6549, -15.75, 0.125, -0.25
6550, -15.875, 0.25, -0.25
6551, -15.75, 0, -0.3125
6552, -15.75, 0.25, -0.3125
6553, -15.5, 0, -0.25
6554, -15.5, 0.25, -0.25
6555, -15.625, 0, -0.25
6556, -15.5, 0.125, -0.25
6557, -15.625, 0.25, -0.25
6558, -15.5, 0, -0.3125
6559, -15.5, 0.25, -0.3125
6560, -15.25, 0, -0.25
6561, -15.25, 0.25, -0.25
6562, -15.375, 0, -0.25
6563, -15.25, 0.125, -0.25
6564, -15.375, 0.25, -0.25
6565, -15.25, 0, -0.3125
6566, -15.25, 0.25, -0.3125
6567, -15, 0, -0.25
6568, -15, 0.25, -0.25
6569, -15.125, 0, -0.25
6570, -15, 0.125, -0.25
6571, -15.125, 0.25, -0.25
6572, -15, 0, -0.3125
6573, -15, 0.25, -0.3125
6574, -14.75, 0, -0.25
6575, -14.75, 0.25, -0.25
6576, -14.875, 0, -0.25
6577, -14.75, 0.125, -0.25
6578, -14.875, 0.25, -0.25
6579, -14.75, 0, -0.3125
6580, -14.75, 0.25, -0.3125
6581, -14.5, 0, -0.25
6582, -14.5, 0.25, -0.25
6583, -14.625, 0, -0.25
6584, -14.5, 0.125, -0.25
6585, -14.625, 0.25, -0.25
6586, -14.5, 0, -0.3125
6587, -14.5, 0.25, -0.3125
6588, -14.25, 0, -0.25
6589, -14.25, 0.25, -0.25
6590, -14.375, 0, -0.25
6591, -14.25, 0.125, -0.25
6592, -14.375, 0.25, -0.25
6593, -14.25, 0, -0.3125
6594, -14.25, 0.25, -0.3125
6595, -14, 0, -0.25
6596, -14, 0.25, -0.25
6597, -14.125, 0, -0.25
6598, -14, 0.125, -0.25
6599, -14.125, 0.25, -0.25
6600, -14, 0, -0.3125
6601, -14, 0.25, -0.3125
6602, -13.75, 0, -0.25
6603, -13.75, 0.25, -0.25
6604, -13.875, 0, -0.25
6605, -13.75, 0.125, -0.25
6606, -13.875, 0.25, -0.25
6607, -13.75, 0, -0.3125
6608, -13.75, 0.25, -0.3125
6609, -13.5, 0, -0.25
6610, -13.5, 0.25, -0.25
6611, -13.625, 0, -0.25
6612, -13.5, 0.125, -0.25
6613, -13.625, 0.25, -0.25
6614, -13.5, 0, -0.3125
6615, -13.5, 0.25, -0.3125
6616, -13.25, 0, -0.25
6617, -13.25, 0.25, -0.25
6618, -13.375, 0, -0.25
6619, -13.25, 0.125, -0.25
6620, -13.375, 0.25, -0.25
6621, -13.25, 0, -0.3125
6622, -13.25, 0.25, -0.3125
6623, -13, 0, -0.25
6624, -13, 0.25, -0.25
6625, -13.125, 0, -0.25
6626, -13, 0.125, -0.25
6627, -13.125, 0.25, -0.25
6628, -13, 0, -0.3125
6629, -13, 0.25, -0.3125
6630, -12.75, 0, -0.25
6631, -12.75, 0.25, -0.25
6632, -12.875, 0, -0.25
6633, -12.75, 0.125, -0.25
6634, -12.875, 0.25, -0.25
6635, -12.75, 0, -0.3125
6636, -12.75, 0.25, -0.3125
6637, -12.5, 0, -0.25
6638, -12.5, 0.25, -0.25
6639, -12.625, 0, -0.25
6640, -12.5, 0.125, -0.25
6641, -12.625, 0.25, -0.25
6642, -12.5, 0, -0.3125
6643, -12.5, 0.25, -0.3125
6644, -12.25, 0, -0.25
6645, -12.25, 0.25, -0.25
6646, -12.375, 0, -0.25
6647, -12.25, 0.125, -0.25
6648, -12.375, 0.25, -0.25
6649, -12.25, 0, -0.3125
6650, -12.25, 0.25, -0.3125
6651, -12, 0, -0.25
6652, -12, 0.25, -0.25
6653, -12.125, 0, -0.25
6654, -12, 0.125, -0.25
6655, -12.125, 0.25, -0.25
6656, -12, 0, -0.3125
6657, -12, 0.25, -0.3125
6658, -11.75, 0, -0.25
6659, -11.75, 0.25, -0.25
6660, -11.875, 0, -0.25
6661, -11.75, 0.125, -0.25
6662, -11.875, 0.25, -0.25
6663, -11.75, 0, -0.3125
6664, -11.75, 0.25, -0.3125
6665, -11.5, 0, -0.25
6666, -11.5, 0.25, -0.25
6667, -11.625, 0, -0.25
6668, -11.5, 0.125, -0.25
6669, -11.625, 0.25, -0.25
6670, -11.5, 0, -0.3125
6671, -11.5, 0.25, -0.3125
6672, -11.25, 0, -0.25
6673, -11.25, 0.25, -0.25
6674, -11.375, 0, -0.25
6675, -11.25, 0.125, -0.25
6676, -11.375, 0.25, -0.25
6677, -11.25, 0, -0.3125
6678, -11.25, 0.25, -0.3125
6679, -11, 0, -0.25
6680, -11, 0.25, -0.25
6681, -11.125, 0, -0.25
6682, -11, 0.125, -0.25
6683, -11.125, 0.25, -0.25
6684, -11, 0, -0.3125
6685, -11, 0.25, -0.3125
6686, -10.75, 0, -0.25
6687, -10.75, 0.25, -0.25
6688, -10.875, 0, -0.25
6689, -10.75, 0.125, -0.25
6690, -10.875, 0.25, -0.25
6691, -10.75, 0, -0.3125
6692, -10.75, 0.25, -0.3125
6693, -10.5, 0, -0.25
6694, -10.5, 0.25, -0.25
6695, -10.625, 0, -0.25
6696, -10.5, 0.125, -0.25
6697, -10.625, 0.25, -0.25
6698, -10.5, 0, -0.3125
6699, -10.5, 0.25, -0.3125
6700, -10.25, 0, -0.25
6701, -10.25, 0.25, -0.25
6702, -10.375, 0, -0.25
6703, -10.25, 0.125, -0.25
6704, -10.375, 0.25, -0.25
6705, -10.25, 0, -0.3125
6706, -10.25, 0.25, -0.3125
6707, -10, 0, -0.25
6708, -10, 0.25, -0.25
6709, -10.125, 0, -0.25
6710, -10, 0.125, -0.25
6711, -10.125, 0.25, -0.25
6712, -10, 0, -0.3125
6713, -10, 0.25, -0.3125
6714, -9.75, 0, -0.25
6715, -9.75, 0.25, -0.25
6716, -9.875, 0, -0.25
6717, -9.75, 0.125, -0.25
6718, -9.875, 0.25, -0.25
6719, -9.75, 0, -0.3125
6720, -9.75, 0.25, -0.3125
6721, -9.5, 0, -0.25
6722, -9.5, 0.25, -0.25
6723, -9.625, 0, -0.25
6724, -9.5, 0.125, -0.25
6725, -9.625, 0.25, -0.25
6726, -9.5, 0, -0.3125
6727, -9.5, 0.25, -0.3125
6728, -9.25, 0, -0.25
6729, -9.25, 0.25, -0.25
6730, -9.375, 0, -0.25
6731, -9.25, 0.125, -0.25
6732, -9.375, 0.25, -0.25
6733, -9.25, 0, -0.3125
6734, -9.25, 0.25, -0.3125
6735, -9, 0, -0.25
6736, -9, 0.25, -0.25
6737, -9.125, 0, -0.25
6738, -9, 0.125, -0.25
6739, -9.125, 0.25, -0.25
6740, -9, 0, -0.3125
6741, -9, 0.25, -0.3125
6742, -8.75, 0, -0.25
6743, -8.75, 0.25, -0.25
6744, -8.875, 0, -0.25
6745, -8.75, 0.125, -0.25
6746, -8.875, 0.25, -0.25
6747, -8.75, 0, -0.3125
6748, -8.75, 0.25, -0.3125
6749, -8.5, 0, -0.25
6750, -8.5, 0.25, -0.25
6751, -8.625, 0, -0.25
6752, -8.5, 0.125, -0.25
6753, -8.625, 0.25, -0.25
6754, -8.5, 0, -0.3125
6755, -8.5, 0.25, -0.3125
6756, -8.25, 0, -0.25
6757, -8.25, 0.25, -0.25
6758, -8.375, 0, -0.25
6759, -8.25, 0.125, -0.25
6760, -8.375, 0.25, -0.25
6761, -8.25, 0, -0.3125
6762, -8.25, 0.25, -0.3125
6763, -8, 0, -0.25
6764, -8, 0.25, -0.25
6765, -8.125, 0, -0.25
6766, -8, 0.125, -0.25
6767, -8.125, 0.25, -0.25
6768, -8, 0, -0.3125
6769, -8, 0.25, -0.3125
6770, -7.75, 0, -0.25
6771, -7.75, 0.25, -0.25
6772, -7.875, 0, -0.25
6773, -7.75, 0.125, -0.25
6774, -7.875, 0.25, -0.25
6775, -7.75, 0, -0.3125
6776, -7.75, 0.25, -0.3125
6777, -7.5, 0, -0.25
6778, -7.5, 0.25, -0.25
6779, -7.625, 0, -0.25
6780, -7.5, 0.125, -0.25
6781, -7.625, 0.25, -0.25
6782, -7.5, 0, -0.3125
6783, -7.5, 0.25, -0.3125
6784, -7.25, 0, -0.25
6785, -7.25, 0.25, -0.25
6786, -7.375, 0, -0.25
6787, -7.25, 0.125, -0.25
6788, -7.375, 0.25, -0.25
6789, -7.25, 0, -0.3125
6790, -7.25, 0.25, -0.3125
6791, -7, 0, -0.25
6792, -7, 0.25, -0.25
6793, -7.125, 0, -0.25
6794, -7, 0.125, -0.25
6795, -7.125, 0.25, -0.25
6796, -7, 0, -0.3125
6797, -7, 0.25, -0.3125
6798, -6.75, 0, -0.25
6799, -6.75, 0.25, -0.25
6800, -6.875, 0, -0.25
6801, -6.75, 0.125, -0.25
6802, -6.875, 0.25, -0.25
6803, -6.75, 0, -0.3125
6804, -6.75, 0.25, -0.3125
6805, -6.5, 0, -0.25
6806, -6.5, 0.25, -0.25
6807, -6.625, 0, -0.25
6808, -6.5, 0.125, -0.25
6809, -6.625, 0.25, -0.25
6810, -6.5, 0, -0.3125
6811, -6.5, 0.25, -0.3125
6812, -6.25, 0, -0.25
6813, -6.25, 0.25, -0.25
6814, -6.375, 0, -0.25
6815, -6.25, 0.125, -0.25
6816, -6.375, 0.25, -0.25
6817, -6.25, 0, -0.3125
6818, -6.25, 0.25, -0.3125
6819, -6, 0, -0.25
6820, -6, 0.25, -0.25
6821, -6.125, 0, -0.25
6822, -6, 0.125, -0.25
6823, -6.125, 0.25, -0.25
6824, -6, 0, -0.3125
6825, -6, 0.25, -0.3125
6826, -5.75, 0, -0.25
6827, -5.75, 0.25, -0.25
6828, -5.875, 0, -0.25
6829, -5.75, 0.125, -0.25
6830, -5.875, 0.25, -0.25
6831, -5.75, 0, -0.3125
6832, -5.75, 0.25, -0.3125
6833, -5.5, 0, -0.25
6834, -5.5, 0.25, -0.25
6835, -5.625, 0, -0.25
6836, -5.5, 0.125, -0.25
6837, -5.625, 0.25, -0.25
6838, -5.5, 0, -0.3125
6839, -5.5, 0.25, -0.3125
6840, -5.25, 0, -0.25
6841, -5.25, 0.25, -0.25
6842, -5.375, 0, -0.25
6843, -5.25, 0.125, -0.25
6844, -5.375, 0.25, -0.25
6845, -5.25, 0, -0.3125
6846, -5.25, 0.25, -0.3125
6847, -5, 0, -0.25
6848, -5, 0.25, -0.25
6849, -5.125, 0, -0.25
6850, -5, 0.125, -0.25
6851, -5.125, 0.25, -0.25
6852, -5, 0, -0.3125
6853, -5, 0.25, -0.3125
6854, -4.75, 0, -0.25
6855, -4.75, 0.25, -0.25
6856, -4.875, 0, -0.25
6857, -4.75, 0.125, -0.25
6858, -4.875, 0.25, -0.25
6859, -4.75, 0, -0.3125
6860, -4.75, 0.25, -0.3125
6861, -4.5, 0, -0.25
6862, -4.5, 0.25, -0.25
6863, -4.625, 0, -0.25
6864, -4.5, 0.125, -0.25
6865, -4.625, 0.25, -0.25
6866, -4.5, 0, -0.3125
6867, -4.5, 0.25, -0.3125
6868, -4.25, 0, -0.25
6869, -4.25, 0.25, -0.25
6870, -4.375, 0, -0.25
6871, -4.25, 0.125, -0.25
6872, -4.375, 0.25, -0.25
6873, -4.25, 0, -0.3125
6874, -4.25, 0.25, -0.3125
6875, -4, 0, -0.25
6876, -4, 0.25, -0.25
6877, -4.125, 0, -0.25
6878, -4, 0.125, -0.25
6879, -4.125, 0.25, -0.25
6880, -4, 0, -0.3125
6881, -4, 0.25, -0.3125
6882, -3.75, 0, -0.25
6883, -3.75, 0.25, -0.25
6884, -3.875, 0, -0.25
6885, -3.75, 0.125, -0.25
6886, -3.875, 0.25, -0.25
6887, -3.75, 0, -0.3125
6888, -3.75, 0.25, -0.3125
6889, -3.5, 0, -0.25
6890, -3.5, 0.25, -0.25
6891, -3.625, 0, -0.25
6892, -3.5, 0.125, -0.25
6893, -3.625, 0.25, -0.25
6894, -3.5, 0, -0.3125
6895, -3.5, 0.25, -0.3125
6896, -3.25, 0, -0.25
6897, -3.25, 0.25, -0.25
6898, -3.375, 0, -0.25
6899, -3.25, 0.125, -0.25
6900, -3.375, 0.25, -0.25
6901, -3.25, 0, -0.3125
6902, -3.25, 0.25, -0.3125
6903, -3, 0, -0.25
6904, -3, 0.25, -0.25
6905, -3.125, 0, -0.25
6906, -3, 0.125, -0.25
6907, -3.125, 0.25, -0.25
6908, -3, 0, -0.3125
6909, -3, 0.25, -0.3125
6910, -2.75, 0, -0.25
6911, -2.75, 0.25, -0.25
6912, -2.875, 0, -0.25
6913, -2.75, 0.125, -0.25
6914, -2.875, 0.25, -0.25
6915, -2.75, 0, -0.3125
6916, -2.75, 0.25, -0.3125
6917, -2.5, 0, -0.25
6918, -2.5, 0.25, -0.25
6919, -2.625, 0, -0.25
6920, -2.5, 0.125, -0.25
6921, -2.625, 0.25, -0.25
6922, -2.5, 0, -0.3125
6923, -2.5, 0.25, -0.3125
6924, -2.25, 0, -0.25
6925, -2.25, 0.25, -0.25
6926, -2.375, 0, -0.25
6927, -2.25, 0.125, -0.25
6928, -2.375, 0.25, -0.25
6929, -2.25, 0, -0.3125
6930, -2.25, 0.25, -0.3125
6931, -2, 0, -0.25
6932, -2, 0.25, -0.25
6933, -2.125, 0, -0.25
6934, -2, 0.125, -0.25
6935, -2.125, 0.25, -0.25
6936, -2, 0, -0.3125
6937, -2, 0.25, -0.3125
6938, -1.75, 0, -0.25
6939, -1.75, 0.25, -0.25
6940, -1.875, 0, -0.25
6941, -1.75, 0.125, -0.25
6942, -1.875, 0.25, -0.25
6943, -1.75, 0, -0.3125
6944, -1.75, 0.25, -0.3125
6945, -1.5, 0, -0.25
6946, -1.5, 0.25, -0.25
6947, -1.625, 0, -0.25
6948, -1.5, 0.125, -0.25
6949, -1.625, 0.25, -0.25
6950, -1.5, 0, -0.3125
6951, -1.5, 0.25, -0.3125
6952, -1.25, 0, -0.25
6953, -1.25, 0.25, -0.25
6954, -1.375, 0, -0.25
6955, -1.25, 0.125, -0.25
6956, -1.375, 0.25, -0.25
6957, -1.25, 0, -0.3125
6958, -1.25, 0.25, -0.3125
6959, -1, 0, -0.25
6960, -1, 0.25, -0.25
6961, -1.125, 0, -0.25
6962, -1, 0.125, -0.25
6963, -1.125, 0.25, -0.25
6964, -1, 0, -0.3125
6965, -1, 0.25, -0.3125
6966, -0.75, 0, -0.25
6967, -0.75, 0.25, -0.25
6968, -0.875, 0, -0.25
6969, -0.75, 0.125, -0.25
6970, -0.875, 0.25, -0.25
6971, -0.75, 0, -0.3125
6972, -0.75, 0.25, -0.3125
6973, -0.5, 0, -0.25
6974, -0.5, 0.25, -0.25
6975, -0.625, 0, -0.25
6976, -0.5, 0.125, -0.25
6977, -0.625, 0.25, -0.25
6978, -0.5, 0, -0.3125
6979, -0.5, 0.25, -0.3125
6980, -0.25, 0, -0.25
6981, -0.25, 0.25, -0.25
6982, -0.375, 0, -0.25
6983, -0.25, 0.125, -0.25
6984, -0.375, 0.25, -0.25
6985, -0.25, 0, -0.3125
6986, -0.25, 0.25, -0.3125
6987, 0, 0, -0.25
6988, 0, 0.25, -0.25
6989, -0.125, 0, -0.25
6990, 0, 0.125, -0.25
6991, -0.125, 0.25, -0.25
6992, 0, 0, -0.3125
6993, 0, 0.25, -0.3125
6994, 0.25, 0, -0.25
6995, 0.25, 0.25, -0.25
6996, 0.125, 0, -0.25
6997, 0.25, 0.125, -0.25
6998, 0.125, 0.25, -0.25
6999, 0.25, 0, -0.3125
7000, 0.25, 0.25, -0.3125
7001, 0.5, 0, -0.25
7002, 0.5, 0.25, -0.25
7003, 0.375, 0, -0.25
7004, 0.5, 0.125, -0.25
7005, 0.375, 0.25, -0.25
7006, 0.5, 0, -0.3125
7007, 0.5, 0.25, -0.3125
7008, 0.75, 0, -0.25
7009, 0.75, 0.25, -0.25
7010, 0.625, 0, -0.25
7011, 0.75, 0.125, -0.25
7012, 0.625, 0.25, -0.25
7013, 0.75, 0, -0.3125
7014, 0.75, 0.25, -0.3125
7015, 1, 0, -0.25
7016, 1, 0.25, -0.25
7017, 0.875, 0, -0.25
7018, 1, 0.125, -0.25
7019, 0.875, 0.25, -0.25
7020, 1, 0, -0.3125
7021, 1, 0.25, -0.3125
7022, 1.25, 0, -0.25
7023, 1.25, 0.25, -0.25
7024, 1.125, 0, -0.25
7025, 1.25, 0.125, -0.25
7026, 1.125, 0.25, -0.25
7027, 1.25, 0, -0.3125
7028, 1.25, 0.25, -0.3125
7029, 1.5, 0, -0.25
7030, 1.5, 0.25, -0.25
7031, 1.375, 0, -0.25
7032, 1.5, 0.125, -0.25
7033, 1.375, 0.25, -0.25
7034, 1.5, 0, -0.3125
7035, 1.5, 0.25, -0.3125
7036, 1.75, 0, -0.25
7037, 1.75, 0.25, -0.25
7038, 1.625, 0, -0.25
7039, 1.75, 0.125, -0.25
7040, 1.625, 0.25, -0.25
7041, 1.75, 0, -0.3125
7042, 1.75, 0.25, -0.3125
7043, 2, 0, -0.25
7044, 2, 0.25, -0.25
7045, 1.875, 0, -0.25
7046, 2, 0.125, -0.25
7047, 1.875, 0.25, -0.25
7048, 2, 0, -0.3125
7049, 2, 0.25, -0.3125
7050, 2.25, 0, -0.25
7051, 2.25, 0.25, -0.25
7052, 2.125, 0, -0.25
7053, 2.25, 0.125, -0.25
7054, 2.125, 0.25, -0.25
7055, 2.25, 0, -0.3125
7056, 2.25, 0.25, -0.3125
7057, 2.5, 0, -0.25
7058, 2.5, 0.25, -0.25
7059, 2.375, 0, -0.25
7060, 2.5, 0.125, -0.25
7061, 2.375, 0.25, -0.25
7062, 2.5, 0, -0.3125
7063, 2.5, 0.25, -0.3125
7064, 2.75, 0, -0.25
7065, 2.75, 0.25, -0.25
7066, 2.625, 0, -0.25
7067, 2.75, 0.125, -0.25
7068, 2.625, 0.25, -0.25
7069, 2.75, 0, -0.3125
7070, 2.75, 0.25, -0.3125
7071, 3, 0, -0.25
7072, 3, 0.25, -0.25
7073, 2.875, 0, -0.25
7074, 3, 0.125, -0.25
7075, 2.875, 0.25, -0.25
7076, 3, 0, -0.3125
7077, 3, 0.25, -0.3125
7078, 3.25, 0, -0.25
7079, 3.25, 0.25, -0.25
7080, 3.125, 0, -0.25
7081, 3.25, 0.125, -0.25
7082, 3.125, 0.25, -0.25
7083, 3.25, 0, -0.3125
7084, 3.25, 0.25, -0.3125
7085, 3.5, 0, -0.25
7086, 3.5, 0.25, -0.25
7087, 3.375, 0, -0.25
7088, 3.5, 0.125, -0.25
7089, 3.375, 0.25, -0.25
7090, 3.5, 0, -0.3125
7091, 3.5, 0.25, -0.3125
7092, 3.75, 0, -0.25
7093, 3.75, 0.25, -0.25
7094, 3.625, 0, -0.25
7095, 3.75, 0.125, -0.25
7096, 3.625, 0.25, -0.25
7097, 3.75, 0, -0.3125
7098, 3.75, 0.25, -0.3125
7099, 4, 0, -0.25
7100, 4, 0.25, -0.25
7101, 3.875, 0, -0.25
7102, 4, 0.125, -0.25
7103, 3.875, 0.25, -0.25
7104, 4, 0, -0.3125
7105, 4, 0.25, -0.3125
7106, 4.25, 0, -0.25
7107, 4.25, 0.25, -0.25
7108, 4.125, 0, -0.25
7109, 4.25, 0.125, -0.25
7110, 4.125, 0.25, -0.25
7111, 4.25, 0, -0.3125
7112, 4.25, 0.25, -0.3125
7113, 4.5, 0, -0.25
7114, 4.5, 0.25, -0.25
7115, 4.375, 0, -0.25
7116, 4.5, 0.125, -0.25
7117, 4.375, 0.25, -0.25
7118, 4.5, 0, -0.3125
7119, 4.5, 0.25, -0.3125
7120, 4.75, 0, -0.25
7121, 4.75, 0.25, -0.25
7122, 4.625, 0, -0.25
7123, 4.75, 0.125, -0.25
7124, 4.625, 0.25, -0.25
7125, 4.75, 0, -0.3125
7126, 4.75, 0.25, -0.3125
7127, 5, 0, -0.25
7128, 5, 0.25, -0.25
7129, 4.875, 0, -0.25
7130, 5, 0.125, -0.25
7131, 4.875, 0.25, -0.25
7132, 5, 0, -0.3125
7133, 5, 0.25, -0.3125
7134, 5.25, 0, -0.25
7135, 5.25, 0.25, -0.25
7136, 5.125, 0, -0.25
7137, 5.25, 0.125, -0.25
7138, 5.125, 0.25, -0.25
7139, 5.25, 0, -0.3125
7140, 5.25, 0.25, -0.3125
7141, 5.5, 0, -0.25
7142, 5.5, 0.25, -0.25
7143, 5.375, 0, -0.25
7144, 5.5, 0.125, -0.25
7145, 5.375, 0.25, -0.25
7146, 5.5, 0, -0.3125
7147, 5.5, 0.25, -0.3125
7148, 5.75, 0, -0.25
7149, 5.75, 0.25, -0.25
7150, 5.625, 0, -0.25
7151, 5.75, 0.125, -0.25
7152, 5.625, 0.25, -0.25
7153, 5.75, 0, -0.3125
7154, 5.75, 0.25, -0.3125
7155, 6, 0, -0.25
7156, 6, 0.25, -0.25
7157, 5.875, 0, -0.25
7158, 6, 0.125, -0.25
7159, 5.875, 0.25, -0.25
7160, 6, 0, -0.3125
7161, 6, 0.25, -0.3125
7162, 6.25, 0, -0.25
7163, 6.25, 0.25, -0.25
7164, 6.125, 0, -0.25
7165, 6.25, 0.125, -0.25
7166, 6.125, 0.25, -0.25
7167, 6.25, 0, -0.3125
7168, 6.25, 0.25, -0.3125
7169, 6.5, 0, -0.25
7170, 6.5, 0.25, -0.25
7171, 6.375, 0, -0.25
7172, 6.5, 0.125, -0.25
7173, 6.375, 0.25, -0.25
7174, 6.5, 0, -0.3125
7175, 6.5, 0.25, -0.3125
7176, 6.75, 0, -0.25
7177, 6.75, 0.25, -0.25
7178, 6.625, 0, -0.25
7179, 6.75, 0.125, -0.25
7180, 6.625, 0.25, -0.25
7181, 6.75, 0, -0.3125
7182, 6.75, 0.25, -0.3125
7183, 7, 0, -0.25
7184, 7, 0.25, -0.25
7185, 6.875, 0, -0.25
7186, 7, 0.125, -0.25
7187, 6.875, 0.25, -0.25
7188, 7, 0, -0.3125
7189, 7, 0.25, -0.3125
7190, 7.25, 0, -0.25
7191, 7.25, 0.25, -0.25
7192, 7.125, 0, -0.25
7193, 7.25, 0.125, -0.25
7194, 7.125, 0.25, -0.25
7195, 7.25, 0, -0.3125
7196, 7.25, 0.25, -0.3125
7197, 7.5, 0, -0.25
7198, 7.5, 0.25, -0.25
7199, 7.375, 0, -0.25
7200, 7.5, 0.125, -0.25
7201, 7.375, 0.25, -0.25
7202, 7.5, 0, -0.3125
7203, 7.5, 0.25, -0.3125
7204, 7.75, 0, -0.25
7205, 7.75, 0.25, -0.25
7206, 7.625, 0, -0.25
7207, 7.75, 0.125, -0.25
7208, 7.625, 0.25, -0.25
7209, 7.75, 0, -0.3125
7210, 7.75, 0.25, -0.3125
7211, 8, 0, -0.25
7212, 8, 0.25, -0.25
7213, 7.875, 0, -0.25
7214, 8, 0.125, -0.25
7215, 7.875, 0.25, -0.25
7216, 8, 0, -0.3125
7217, 8, 0.25, -0.3125
7218, 8.25, 0, -0.25
7219, 8.25, 0.25, -0.25
7220, 8.125, 0, -0.25
7221, 8.25, 0.125, -0.25
7222, 8.125, 0.25, -0.25
7223, 8.25, 0, -0.3125
7224, 8.25, 0.25, -0.3125
7225, 8.5, 0, -0.25
7226, 8.5, 0.25, -0.25
7227, 8.375, 0, -0.25
7228, 8.5, 0.125, -0.25
7229, 8.375, 0.25, -0.25
7230, 8.5, 0, -0.3125
7231, 8.5, 0.25, -0.3125
7232, 8.75, 0, -0.25
7233, 8.75, 0.25, -0.25
7234, 8.625, 0, -0.25
7235, 8.75, 0.125, -0.25
7236, 8.625, 0.25, -0.25
7237, 8.75, 0, -0.3125
7238, 8.75, 0.25, -0.3125
7239, 9, 0, -0.25
7240, 9, 0.25, -0.25
7241, 8.875, 0, -0.25
7242, 9, 0.125, -0.25
7243, 8.875, 0.25, -0.25
7244, 9, 0, -0.3125
7245, 9, 0.25, -0.3125
7246, 9.25, 0, -0.25
7247, 9.25, 0.25, -0.25
7248, 9.125, 0, -0.25
7249, 9.25, 0.125, -0.25
7250, 9.125, 0.25, -0.25
7251, 9.25, 0, -0.3125
7252, 9.25, 0.25, -0.3125
7253, 9.5, 0, -0.25
7254, 9.5, 0.25, -0.25
7255, 9.375, 0, -0.25
7256, 9.5, 0.125, -0.25
7257, 9.375, 0.25, -0.25
7258, 9.5, 0, -0.3125
7259, 9.5, 0.25, -0.3125
7260, 9.75, 0, -0.25
7261, 9.75, 0.25, -0.25
7262, 9.625, 0, -0.25
7263, 9.75, 0.125, -0.25
7264, 9.625, 0.25, -0.25
7265, 9.75, 0, -0.3125
7266, 9.75, 0.25, -0.3125
7267, 10, 0, -0.25
7268, 10, 0.25, -0.25
7269, 9.875, 0, -0.25
7270, 10, 0.125, -0.25
7271, 9.875, 0.25, -0.25
7272, 10, 0, -0.3125
7273, 10, 0.25, -0.3125
7274, 10.25, 0, -0.25
7275, 10.25, 0.25, -0.25
7276, 10.125, 0, -0.25
7277, 10.25, 0.125, -0.25
7278, 10.125, 0.25, -0.25
7279, 10.25, 0, -0.3125
7280, 10.25, 0.25, -0.3125
7281, 10.5, 0, -0.25
7282, 10.5, 0.25, -0.25
7283, 10.375, 0, -0.25
7284, 10.5, 0.125, -0.25
7285, 10.375, 0.25, -0.25
7286, 10.5, 0, -0.3125
7287, 10.5, 0.25, -0.3125
7288, 10.75, 0, -0.25
7289, 10.75, 0.25, -0.25
7290, 10.625, 0, -0.25
7291, 10.75, 0.125, -0.25
7292, 10.625, 0.25, -0.25
7293, 10.75, 0, -0.3125
7294, 10.75, 0.25, -0.3125
7295, 11, 0, -0.25
7296, 11, 0.25, -0.25
7297, 10.875, 0, -0.25
7298, 11, 0.125, -0.25
7299, 10.875, 0.25, -0.25
7300, 11, 0, -0.3125
7301, 11, 0.25, -0.3125
7302, 11.25, 0, -0.25
7303, 11.25, 0.25, -0.25
7304, 11.125, 0, -0.25
7305, 11.25, 0.125, -0.25
7306, 11.125, 0.25, -0.25
7307, 11.25, 0, -0.3125
7308, 11.25, 0.25, -0.3125
7309, 11.5, 0, -0.25
7310, 11.5, 0.25, -0.25
7311, 11.375, 0, -0.25
7312, 11.5, 0.125, -0.25
7313, 11.375, 0.25, -0.25
7314, 11.5, 0, -0.3125
7315, 11.5, 0.25, -0.3125
7316, 11.75, 0, -0.25
7317, 11.75, 0.25, -0.25
7318, 11.625, 0, -0.25
7319, 11.75, 0.125, -0.25
7320, 11.625, 0.25, -0.25
7321, 11.75, 0, -0.3125
7322, 11.75, 0.25, -0.3125
7323, 12, 0, -0.25
7324, 12, 0.25, -0.25
7325, 11.875, 0, -0.25
7326, 12, 0.125, -0.25
7327, 11.875, 0.25, -0.25
7328, 12, 0, -0.3125
7329, 12, 0.25, -0.3125
7330, 12.25, 0, -0.25
7331, 12.25, 0.25, -0.25
7332, 12.125, 0, -0.25
7333, 12.25, 0.125, -0.25
7334, 12.125, 0.25, -0.25
7335, 12.25, 0, -0.3125
7336, 12.25, 0.25, -0.3125
7337, 12.5, 0, -0.25
7338, 12.5, 0.25, -0.25
7339, 12.375, 0, -0.25
7340, 12.5, 0.125, -0.25
7341, 12.375, 0.25, -0.25
7342, 12.5, 0, -0.3125
7343, 12.5, 0.25, -0.3125
7344, 12.75, 0, -0.25
7345, 12.75, 0.25, -0.25
7346, 12.625, 0, -0.25
7347, 12.75, 0.125, -0.25
7348, 12.625, 0.25, -0.25
7349, 12.75, 0, -0.3125
7350, 12.75, 0.25, -0.3125
7351, 13, 0, -0.25
7352, 13, 0.25, -0.25
7353, 12.875, 0, -0.25
7354, 13, 0.125, -0.25
7355, 12.875, 0.25, -0.25
7356, 13, 0, -0.3125
7357, 13, 0.25, -0.3125
7358, 13.25, 0, -0.25
7359, 13.25, 0.25, -0.25
7360, 13.125, 0, -0.25
7361, 13.25, 0.125, -0.25
7362, 13.125, 0.25, -0.25
7363, 13.25, 0, -0.3125
7364, 13.25, 0.25, -0.3125
7365, 13.5, 0, -0.25
7366, 13.5, 0.25, -0.25
7367, 13.375, 0, -0.25
7368, 13.5, 0.125, -0.25
7369, 13.375, 0.25, -0.25
7370, 13.5, 0, -0.3125
7371, 13.5, 0.25, -0.3125
7372, 13.75, 0, -0.25
7373, 13.75, 0.25, -0.25
7374, 13.625, 0, -0.25
7375, 13.75, 0.125, -0.25
7376, 13.625, 0.25, -0.25
7377, 13.75, 0, -0.3125
7378, 13.75, 0.25, -0.3125
7379, 14, 0, -0.25
7380, 14, 0.25, -0.25
7381, 13.875, 0, -0.25
7382, 14, 0.125, -0.25
7383, 13.875, 0.25, -0.25
7384, 14, 0, -0.3125
7385, 14, 0.25, -0.3125
7386, 14.25, 0, -0.25
7387, 14.25, 0.25, -0.25
7388, 14.125, 0, -0.25
7389, 14.25, 0.125, -0.25
7390, 14.125, 0.25, -0.25
7391, 14.25, 0, -0.3125
7392, 14.25, 0.25, -0.3125
7393, 14.5, 0, -0.25
7394, 14.5, 0.25, -0.25
7395, 14.375, 0, -0.25
7396, 14.5, 0.125, -0.25
7397, 14.375, 0.25, -0.25
7398, 14.5, 0, -0.3125
7399, 14.5, 0.25, -0.3125
7400, 14.75, 0, -0.25
7401, 14.75, 0.25, -0.25
7402, 14.625, 0, -0.25
7403, 14.75, 0.125, -0.25
7404, 14.625, 0.25, -0.25
7405, 14.75, 0, -0.3125
7406, 14.75, 0.25, -0.3125
7407, 15, 0, -0.25
7408, 15, 0.25, -0.25
7409, 14.875, 0, -0.25
7410, 15, 0.125, -0.25
7411, 14.875, 0.25, -0.25
7412, 15, 0, -0.3125
7413, 15, 0.25, -0.3125
7414, 15.25, 0, -0.25
7415, 15.25, 0.25, -0.25
7416, 15.125, 0, -0.25
7417, 15.25, 0.125, -0.25
7418, 15.125, 0.25, -0.25
7419, 15.25, 0, -0.3125
7420, 15.25, 0.25, -0.3125
7421, 15.5, 0, -0.25
7422, 15.5, 0.25, -0.25
7423, 15.375, 0, -0.25
7424, 15.5, 0.125, -0.25
7425, 15.375, 0.25, -0.25
7426, 15.5, 0, -0.3125
7427, 15.5, 0.25, -0.3125
7428, 15.75, 0, -0.25
7429, 15.75, 0.25, -0.25
7430, 15.625, 0, -0.25
7431, 15.75, 0.125, -0.25
7432, 15.625, 0.25, -0.25
7433, 15.75, 0, -0.3125
7434, 15.75, 0.25, -0.3125
7435, 16, 0, -0.25
7436, 16, 0.25, -0.25
7437, 15.875, 0, -0.25
7438, 16, 0.125, -0.25
7439, 15.875, 0.25, -0.25
7440, 16, 0, -0.3125
7441, 16, 0.25, -0.3125
7442, 16.25, 0, -0.25
7443, 16.25, 0.25, -0.25
7444, 16.125, 0, -0.25
7445, 16.25, 0.125, -0.25
7446, 16.125, 0.25, -0.25
7447, 16.25, 0, -0.3125
7448, 16.25, 0.25, -0.3125
7449, 16.5, 0, -0.25
7450, 16.5, 0.25, -0.25
7451, 16.375, 0, -0.25
7452, 16.5, 0.125, -0.25
7453, 16.375, 0.25, -0.25
7454, 16.5, 0, -0.3125
7455, 16.5, 0.25, -0.3125
7456, 16.75, 0, -0.25
7457, 16.75, 0.25, -0.25
7458, 16.625, 0, -0.25
7459, 16.75, 0.125, -0.25
7460, 16.625, 0.25, -0.25
7461, 16.75, 0, -0.3125
7462, 16.75, 0.25, -0.3125
7463, 17, 0, -0.25
7464, 17, 0.25, -0.25
7465, 16.875, 0, -0.25
7466, 17, 0.125, -0.25
7467, 16.875, 0.25, -0.25
7468, 17, 0, -0.3125
7469, 17, 0.25, -0.3125
7470, 17.25, 0, -0.25
7471, 17.25, 0.25, -0.25
7472, 17.125, 0, -0.25
7473, 17.25, 0.125, -0.25
7474, 17.125, 0.25, -0.25
7475, 17.25, 0, -0.3125
7476, 17.25, 0.25, -0.3125
7477, 17.5, 0, -0.25
7478, 17.5, 0.25, -0.25
7479, 17.375, 0, -0.25
7480, 17.5, 0.125, -0.25
7481, 17.375, 0.25, -0.25
7482, 17.5, 0, -0.3125
7483, 17.5, 0.25, -0.3125
7484, 17.75, 0, -0.25
7485, 17.75, 0.25, -0.25
7486, 17.625, 0, -0.25
7487, 17.75, 0.125, -0.25
7488, 17.625, 0.25, -0.25
7489, 17.75, 0, -0.3125
7490, 17.75, 0.25, -0.3125
7491, 18, 0, -0.25
7492, 18, 0.25, -0.25
7493, 17.875, 0, -0.25
7494, 18, 0.125, -0.25
7495, 17.875, 0.25, -0.25
7496, 18, 0, -0.3125
7497, 18, 0.25, -0.3125
7498, 18.25, 0, -0.25
7499, 18.25, 0.25, -0.25
7500, 18.125, 0, -0.25
7501, 18.25, 0.125, -0.25
7502, 18.125, 0.25, -0.25
7503, 18.25, 0, -0.3125
7504, 18.25, 0.25, -0.3125
7505, 18.5, 0, -0.25
7506, 18.5, 0.25, -0.25
7507, 18.375, 0, -0.25
7508, 18.5, 0.125, -0.25
7509, 18.375, 0.25, -0.25
7510, 18.5, 0, -0.3125
7511, 18.5, 0.25, -0.3125
7512, 18.75, 0, -0.25
7513, 18.75, 0.25, -0.25
7514, 18.625, 0, -0.25
7515, 18.75, 0.125, -0.25
7516, 18.625, 0.25, -0.25
7517, 18.75, 0, -0.3125
7518, 18.75, 0.25, -0.3125
7519, 19, 0, -0.25
7520, 19, 0.25, -0.25
7521, 18.875, 0, -0.25
7522, 19, 0.125, -0.25
7523, 18.875, 0.25, -0.25
7524, 19, 0, -0.3125
7525, 19, 0.25, -0.3125
7526, 19.25, 0, -0.25
7527, 19.25, 0.25, -0.25
7528, 19.125, 0, -0.25
7529, 19.25, 0.125, -0.25
7530, 19.125, 0.25, -0.25
7531, 19.25, 0, -0.3125
7532, 19.25, 0.25, -0.3125
7533, 19.5, 0, -0.25
7534, 19.5, 0.25, -0.25
7535, 19.375, 0, -0.25
7536, 19.5, 0.125, -0.25
7537, 19.375, 0.25, -0.25
7538, 19.5, 0, -0.3125
7539, 19.5, 0.25, -0.3125
7540, 19.75, 0, -0.25
7541, 19.75, 0.25, -0.25
7542, 19.625, 0, -0.25
7543, 19.75, 0.125, -0.25
7544, 19.625, 0.25, -0.25
7545, 19.75, 0, -0.3125
7546, 19.75, 0.25, -0.3125
7547, 20, 0, -0.25
7548, 20, 0.25, -0.25
7549, 19.875, 0, -0.25
7550, 20, 0.125, -0.25
7551, 19.875, 0.25, -0.25
7552, 20, 0, -0.3125
7553, 20, 0.25, -0.3125
7554, -20, 0, -0.125
7555, -19.75, 0, -0.125
7556, -19.75, 0.25, -0.125
7557, -20, 0.25, -0.125
7558, -19.875, 0, -0.125
7559, -19.75, 0.125, -0.125
7560, -19.875, 0.25, -0.125
7561, -20, 0.125, -0.125
7562, -20, 0, -0.1875
7563, -19.75, 0, -0.1875
7564, -19.75, 0.25, -0.1875
7565, -20, 0.25, -0.1875
7566, -19.5, 0, -0.125
7567, -19.5, 0.25, -0.125
7568, -19.625, 0, -0.125
7569, -19.5, 0.125, -0.125
7570, -19.625, 0.25, -0.125
7571, -19.5, 0, -0.1875
7572, -19.5, 0.25, -0.1875
7573, -19.25, 0, -0.125
7574, -19.25, 0.25, -0.125
7575, -19.375, 0, -0.125
7576, -19.25, 0.125, -0.125
7577, -19.375, 0.25, -0.125
7578, -19.25, 0, -0.1875
7579, -19.25, 0.25, -0.1875
7580, -19, 0, -0.125
7581, -19, 0.25, -0.125
7582, -19.125, 0, -0.125
7583, -19, 0.125, -0.125
7584, -19.125, 0.25, -0.125
7585, -19, 0, -0.1875
7586, -19, 0.25, -0.1875
7587, -18.75, 0, -0.125
7588, -18.75, 0.25, -0.125
7589, -18.875, 0, -0.125
7590, -18.75, 0.125, -0.125
7591, -18.875, 0.25, -0.125
7592, -18.75, 0, -0.1875
7593, -18.75, 0.25, -0.1875
7594, -18.5, 0, -0.125
7595, -18.5, 0.25, -0.125
7596, -18.625, 0, -0.125
7597, -18.5, 0.125, -0.125
7598, -18.625, 0.25, -0.125
7599, -18.5, 0, -0.1875
7600, -18.5, 0.25, -0.1875
7601, -18.25, 0, -0.125
7602, -18.25, 0.25, -0.125
7603, -18.375, 0, -0.125
7604, -18.25, 0.125, -0.125
7605, -18.375, 0.25, -0.125
7606, -18.25, 0, -0.1875
7607, -18.25, 0.25, -0.1875
7608, -18, 0, -0.125
7609, -18, 0.25, -0.125
7610, -18.125, 0, -0.125
7611, -18, 0.125, -0.125
7612, -18.125, 0.25, -0.125
7613, -18, 0, -0.1875
7614, -18, 0.25, -0.1875
7615, -17.75, 0, -0.125
7616, -17.75, 0.25, -0.125
7617, -17.875, 0, -0.125
7618, -17.75, 0.125, -0.125
7619, -17.875, 0.25, -0.125
7620, -17.75, 0, -0.1875
7621, -17.75, 0.25, -0.1875
7622, -17.5, 0, -0.125
7623, -17.5, 0.25, -0.125
7624, -17.625, 0, -0.125
7625, -17.5, 0.125, -0.125
7626, -17.625, 0.25, -0.125
7627, -17.5, 0, -0.1875
7628, -17.5, 0.25, -0.1875
7629, -17.25, 0, -0.125
7630, -17.25, 0.25, -0.125
7631, -17.375, 0, -0.125
7632, -17.25, 0.125, -0.125
7633, -17.375, 0.25, -0.125
7634, -17.25, 0, -0.1875
7635, -17.25, 0.25, -0.1875
7636, -17, 0, -0.125
7637, -17, 0.25, -0.125
7638, -17.125, 0, -0.125
7639, -17, 0.125, -0.125
7640, -17.125, 0.25, -0.125
7641, -17, 0, -0.1875
7642, -17, 0.25, -0.1875
7643, -16.75, 0, -0.125
7644, -16.75, 0.25, -0.125
7645, -16.875, 0, -0.125
7646, -16.75, 0.125, -0.125
7647, -16.875, 0.25, -0.125
7648, -16.75, 0, -0.1875
7649, -16.75, 0.25, -0.1875
7650, -16.5, 0, -0.125
7651, -16.5, 0.25, -0.125
7652, -16.625, 0, -0.125
7653, -16.5, 0.125, -0.125
7654, -16.625, 0.25, -0.125
7655, -16.5, 0, -0.1875
7656, -16.5, 0.25, -0.1875
7657, -16.25, 0, -0.125
7658, -16.25, 0.25, -0.125
7659, -16.375, 0, -0.125
7660, -16.25, 0.125, -0.125
7661, -16.375, 0.25, -0.125
7662, -16.25, 0, -0.1875
7663, -16.25, 0.25, -0.1875
7664, -16, 0, -0.125
7665, -16, 0.25, -0.125
7666, -16.125, 0, -0.125
7667, -16, 0.125, -0.125
7668, -16.125, 0.25, -0.125
7669, -16, 0, -0.1875
7670, -16, 0.25, -0.1875
7671, -15.75, 0, -0.125
7672, -15.75, 0.25, -0.125
7673, -15.875, 0, -0.125
7674, -15.75, 0.125, -0.125
7675, -15.875, 0.25, -0.125
7676, -15.75, 0, -0.1875
7677, -15.75, 0.25, -0.1875
7678, -15.5, 0, -0.125
7679, -15.5, 0.25, -0.125
7680, -15.625, 0, -0.125
7681, -15.5, 0.125, -0.125
7682, -15.625, 0.25, -0.125
7683, -15.5, 0, -0.1875
7684, -15.5, 0.25, -0.1875
7685, -15.25, 0, -0.125
7686, -15.25, 0.25, -0.125
7687, -15.375, 0, -0.125
7688, -15.25, 0.125, -0.125
7689, -15.375, 0.25, -0.125
7690, -15.25, 0, -0.1875
7691, -15.25, 0.25, -0.1875
7692, -15, 0, -0.125
7693, -15, 0.25, -0.125
7694, -15.125, 0, -0.125
7695, -15, 0.125, -0.125
7696, -15.125, 0.25, -0.125
7697, -15, 0, -0.1875
7698, -15, 0.25, -0.1875
7699, -14.75, 0, -0.125
7700, -14.75, 0.25, -0.125
7701, -14.875, 0, -0.125
7702, -14.75, 0.125, -0.125
7703, -14.875, 0.25, -0.125
7704, -14.75, 0, -0.1875
7705, -14.75, 0.25, -0.1875
7706, -14.5, 0, -0.125
7707, -14.5, 0.25, -0.125
7708, -14.625, 0, -0.125
7709, -14.5, 0.125, -0.125
7710, -14.625, 0.25, -0.125
7711, -14.5, 0, -0.1875
7712, -14.5, 0.25, -0.1875
7713, -14.25, 0, -0.125
7714, -14.25, 0.25, -0.125
7715, -14.375, 0, -0.125
7716, -14.25, 0.125, -0.125
7717, -14.375, 0.25, -0.125
7718, -14.25, 0, -0.1875
7719, -14.25, 0.25, -0.1875
7720, -14, 0, -0.125
7721, -14, 0.25, -0.125
7722, -14.125, 0, -0.125
7723, -14, 0.125, -0.125
7724, -14.125, 0.25, -0.125
7725, -14, 0, -0.1875
7726, -14, 0.25, -0.1875
7727, -13.75, 0, -0.125
7728, -13.75, 0.25, -0.125
7729, -13.875, 0, -0.125
7730, -13.75, 0.125, -0.125
7731, -13.875, 0.25, -0.125
7732, -13.75, 0, -0.1875
7733, -13.75, 0.25, -0.1875
7734, -13.5, 0, -0.125
7735, -13.5, 0.25, -0.125
7736, -13.625, 0, -0.125
7737, -13.5, 0.125, -0.125
7738, -13.625, 0.25, -0.125
7739, -13.5, 0, -0.1875
7740, -13.5, 0.25, -0.1875
7741, -13.25, 0, -0.125
7742, -13.25, 0.25, -0.125
7743, -13.375, 0, -0.125
7744, -13.25, 0.125, -0.125
7745, -13.375, 0.25, -0.125
7746, -13.25, 0, -0.1875
7747, -13.25, 0.25, -0.1875
7748, -13, 0, -0.125
7749, -13, 0.25, -0.125
7750, -13.125, 0, -0.125
7751, -13, 0.125, -0.125
7752, -13.125, 0.25, -0.125
7753, -13, 0, -0.1875
7754, -13, 0.25, -0.1875
7755, -12.75, 0, -0.125
7756, -12.75, 0.25, -0.125
7757, -12.875, 0, -0.125
7758, -12.75, 0.125, -0.125
7759, -12.875, 0.25, -0.125
7760, -12.75, 0, -0.1875
7761, -12.75, 0.25, -0.1875
7762, -12.5, 0, -0.125
7763, -12.5, 0.25, -0.125
7764, -12.625, 0, -0.125
7765, -12.5, 0.125, -0.125
7766, -12.625, 0.25, -0.125
7767, -12.5, 0, -0.1875
7768, -12.5, 0.25, -0.1875
7769, -12.25, 0, -0.125
7770, -12.25, 0.25, -0.125
7771, -12.375, 0, -0.125
7772, -12.25, 0.125, -0.125
7773, -12.375, 0.25, -0.125
7774, -12.25, 0, -0.1875
7775, -12.25, 0.25, -0.1875
7776, -12, 0, -0.125
7777, -12, 0.25, -0.125
7778, -12.125, 0, -0.125
7779, -12, 0.125, -0.125
7780, -12.125, 0.25, -0.125
7781, -12, 0, -0.1875
7782, -12, 0.25, -0.1875
7783, -11.75, 0, -0.125
7784, -11.75, 0.25, -0.125
7785, -11.875, 0, -0.125
7786, -11.75, 0.125, -0.125
7787, -11.875, 0.25, -0.125
7788, -11.75, 0, -0.1875
7789, -11.75, 0.25, -0.1875
7790, -11.5, 0, -0.125
7791, -11.5, 0.25, -0.125
7792, -11.625, 0, -0.125
7793, -11.5, 0.125, -0.125
7794, -11.625, 0.25, -0.125
7795, -11.5, 0, -0.1875
7796, -11.5, 0.25, -0.1875
7797, -11.25, 0, -0.125
7798, -11.25, 0.25, -0.125
7799, -11.375, 0, -0.125
7800, -11.25, 0.125, -0.125
7801, -11.375, 0.25, -0.125
7802, -11.25, 0, -0.1875
7803, -11.25, 0.25, -0.1875
7804, -11, 0, -0.125
7805, -11, 0.25, -0.125
7806, -11.125, 0, -0.125
7807, -11, 0.125, -0.125
7808, -11.125, 0.25, -0.125
7809, -11, 0, -0.1875
7810, -11, 0.25, -0.1875
7811, -10.75, 0, -0.125
7812, -10.75, 0.25, -0.125
7813, -10.875, 0, -0.125
7814, -10.75, 0.125, -0.125
7815, -10.875, 0.25, -0.125
7816, -10.75, 0, -0.1875
7817, -10.75, 0.25, -0.1875
7818, -10.5, 0, -0.125
7819, -10.5, 0.25, -0.125
7820, -10.625, 0, -0.125
7821, -10.5, 0.125, -0.125
7822, -10.625, 0.25, -0.125
7823, -10.5, 0, -0.1875
7824, -10.5, 0.25, -0.1875
7825, -10.25, 0, -0.125
7826, -10.25, 0.25, -0.125
7827, -10.375, 0, -0.125
7828, -10.25, 0.125, -0.125
7829, -10.375, 0.25, -0.125
7830, -10.25, 0, -0.1875
7831, -10.25, 0.25, -0.1875
7832, -10, 0, -0.125
7833, -10, 0.25, -0.125
7834, -10.125, 0, -0.125
7835, -10, 0.125, -0.125
7836, -10.125, 0.25, -0.125
7837, -10, 0, -0.1875
7838, -10, 0.25, -0.1875
7839, -9.75, 0, -0.125
7840, -9.75, 0.25, -0.125
7841, -9.875, 0, -0.125
7842, -9.75, 0.125, -0.125
7843, -9.875, 0.25, -0.125
7844, -9.75, 0, -0.1875
7845, -9.75, 0.25, -0.1875
7846, -9.5, 0, -0.125
7847, -9.5, 0.25, -0.125
7848, -9.625, 0, -0.125
7849, -9.5, 0.125, -0.125
7850, -9.625, 0.25, -0.125
7851, -9.5, 0, -0.1875
7852, -9.5, 0.25, -0.1875
7853, -9.25, 0, -0.125
7854, -9.25, 0.25, -0.125
7855, -9.375, 0, -0.125
7856, -9.25, 0.125, -0.125
7857, -9.375, 0.25, -0.125
7858, -9.25, 0, -0.1875
7859, -9.25, 0.25, -0.1875
7860, -9, 0, -0.125
7861, -9, 0.25, -0.125
7862, -9.125, 0, -0.125
7863, -9, 0.125, -0.125
7864, -9.125, 0.25, -0.125
7865, -9, 0, -0.1875
7866, -9, 0.25, -0.1875
7867, -8.75, 0, -0.125
7868, -8.75, 0.25, -0.125
7869, -8.875, 0, -0.125
7870, -8.75, 0.125, -0.125
7871, -8.875, 0.25, -0.125
7872, -8.75, 0, -0.1875
7873, -8.75, 0.25, -0.1875
7874, -8.5, 0, -0.125
7875, -8.5, 0.25, -0.125
7876, -8.625, 0, -0.125
7877, -8.5, 0.125, -0.125
7878, -8.625, 0.25, -0.125
7879, -8.5, 0, -0.1875
7880, -8.5, 0.25, -0.1875
7881, -8.25, 0, -0.125
7882, -8.25, 0.25, -0.125
7883, -8.375, 0, -0.125
7884, -8.25, 0.125, -0.125
7885, -8.375, 0.25, -0.125
7886, -8.25, 0, -0.1875
7887, -8.25, 0.25, -0.1875
7888, -8, 0, -0.125
7889, -8, 0.25, -0.125
7890, -8.125, 0, -0.125
7891, -8, 0.125, -0.125
7892, -8.125, 0.25, -0.125
7893, -8, 0, -0.1875
7894, -8, 0.25, -0.1875
7895, -7.75, 0, -0.125
7896, -7.75, 0.25, -0.125
7897, -7.875, 0, -0.125
7898, -7.75, 0.125, -0.125
7899, -7.875, 0.25, -0.125
7900, -7.75, 0, -0.1875
7901, -7.75, 0.25, -0.1875
7902, -7.5, 0, -0.125
7903, -7.5, 0.25, -0.125
7904, -7.625, 0, -0.125
7905, -7.5, 0.125, -0.125
7906, -7.625, 0.25, -0.125
7907, -7.5, 0, -0.1875
7908, -7.5, 0.25, -0.1875
7909, -7.25, 0, -0.125
7910, -7.25, 0.25, -0.125
7911, -7.375, 0, -0.125
7912, -7.25, 0.125, -0.125
7913, -7.375, 0.25, -0.125
7914, -7.25, 0, -0.1875
7915, -7.25, 0.25, -0.1875
7916, -7, 0, -0.125
7917, -7, 0.25, -0.125
7918, -7.125, 0, -0.125
7919, -7, 0.125, -0.125
7920, -7.125, 0.25, -0.125
7921, -7, 0, -0.1875
7922, -7, 0.25, -0.1875
7923, -6.75, 0, -0.125
7924, -6.75, 0.25, -0.125
7925, -6.875, 0, -0.125
7926, -6.75, 0.125, -0.125
7927, -6.875, 0.25, -0.125
7928, -6.75, 0, -0.1875
7929, -6.75, 0.25, -0.1875
7930, -6.5, 0, -0.125
7931, -6.5, 0.25, -0.125
7932, -6.625, 0, -0.125
7933, -6.5, 0.125, -0.125
7934, -6.625, 0.25, -0.125
7935, -6.5, 0, -0.1875
7936, -6.5, 0.25, -0.1875
7937, -6.25, 0, -0.125
7938, -6.25, 0.25, -0.125
7939, -6.375, 0, -0.125
7940, -6.25, 0.125, -0.125
7941, -6.375, 0.25, -0.125
7942, -6.25, 0, -0.1875
7943, -6.25, 0.25, -0.1875
7944, -6, 0, -0.125
7945, -6, 0.25, -0.125
7946, -6.125, 0, -0.125
7947, -6, 0.125, -0.125
7948, -6.125, 0.25, -0.125
7949, -6, 0, -0.1875
7950, -6, 0.25, -0.1875
7951, -5.75, 0, -0.125
7952, -5.75, 0.25, -0.125
7953, -5.875, 0, -0.125
7954, -5.75, 0.125, -0.125
7955, -5.875, 0.25, -0.125
7956, -5.75, 0, -0.1875
7957, -5.75, 0.25, -0.1875
7958, -5.5, 0, -0.125
7959, -5.5, 0.25, -0.125
7960, -5.625, 0, -0.125
7961, -5.5, 0.125, -0.125
7962, -5.625, 0.25, -0.125
7963, -5.5, 0, -0.1875
7964, -5.5, 0.25, -0.1875
7965, -5.25, 0, -0.125
7966, -5.25, 0.25, -0.125
7967, -5.375, 0, -0.125
7968, -5.25, 0.125, -0.125
7969, -5.375, 0.25, -0.125
7970, -5.25, 0, -0.1875
7971, -5.25, 0.25, -0.1875
7972, -5, 0, -0.125
7973, -5, 0.25, -0.125
7974, -5.125, 0, -0.125
7975, -5, 0.125, -0.125
7976, -5.125, 0.25, -0.125
7977, -5, 0, -0.1875
7978, -5, 0.25, -0.1875
7979, -4.75, 0, -0.125
7980, -4.75, 0.25, -0.125
7981, -4.875, 0, -0.125
7982, -4.75, 0.125, -0.125
7983, -4.875, 0.25, -0.125
7984, -4.75, 0, -0.1875
7985, -4.75, 0.25, -0.1875
7986, -4.5, 0, -0.125
7987, -4.5, 0.25, -0.125
7988, -4.625, 0, -0.125
7989, -4.5, 0.125, -0.125
7990, -4.625, 0.25, -0.125
7991, -4.5, 0, -0.1875
7992, -4.5, 0.25, -0.1875
7993, -4.25, 0, -0.125
7994, -4.25, 0.25, -0.125
7995, -4.375, 0, -0.125
7996, -4.25, 0.125, -0.125
7997, -4.375, 0.25, -0.125
7998, -4.25, 0, -0.1875
7999, -4.25, 0.25, -0.1875
8000, -4, 0, -0.125
8001, -4, 0.25, -0.125
8002, -4.125, 0, -0.125
8003, -4, 0.125, -0.125
8004, -4.125, 0.25, -0.125
8005, -4, 0, -0.1875
8006, -4, 0.25, -0.1875
8007, -3.75, 0, -0.125
8008, -3.75, 0.25, -0.125
8009, -3.875, 0, -0.125
8010, -3.75, 0.125, -0.125
8011, -3.875, 0.25, -0.125
8012, -3.75, 0, -0.1875
8013, -3.75, 0.25, -0.1875
8014, -3.5, 0, -0.125
8015, -3.5, 0.25, -0.125
8016, -3.625, 0, -0.125
8017, -3.5, 0.125, -0.125
8018, -3.625, 0.25, -0.125
8019, -3.5, 0, -0.1875
8020, -3.5, 0.25, -0.1875
8021, -3.25, 0, -0.125
8022, -3.25, 0.25, -0.125
8023, -3.375, 0, -0.125
8024, -3.25, 0.125, -0.125
8025, -3.375, 0.25, -0.125
8026, -3.25, 0, -0.1875
8027, -3.25, 0.25, -0.1875
8028, -3, 0, -0.125
8029, -3, 0.25, -0.125
8030, -3.125, 0, -0.125
8031, -3, 0.125, -0.125
8032, -3.125, 0.25, -0.125
8033, -3, 0, -0.1875
8034, -3, 0.25, -0.1875
8035, -2.75, 0, -0.125
8036, -2.75, 0.25, -0.125
8037, -2.875, 0, -0.125
8038, -2.75, 0.125, -0.125
8039, -2.875, 0.25, -0.125
8040, -2.75, 0, -0.1875
8041, -2.75, 0.25, -0.1875
8042, -2.5, 0, -0.125
8043, -2.5, 0.25, -0.125
8044, -2.625, 0, -0.125
8045, -2.5, 0.125, -0.125
8046, -2.625, 0.25, -0.125
8047, -2.5, 0, -0.1875
8048, -2.5, 0.25, -0.1875
8049, -2.25, 0, -0.125
8050, -2.25, 0.25, -0.125
8051, -2.375, 0, -0.125
8052, -2.25, 0.125, -0.125
8053, -2.375, 0.25, -0.125
8054, -2.25, 0, -0.1875
8055, -2.25, 0.25, -0.1875
8056, -2, 0, -0.125
8057, -2, 0.25, -0.125
8058, -2.125, 0, -0.125
8059, -2, 0.125, -0.125
8060, -2.125, 0.25, -0.125
8061, -2, 0, -0.1875
8062, -2, 0.25, -0.1875
8063, -1.75, 0, -0.125
8064, -1.75, 0.25, -0.125
8065, -1.875, 0, -0.125
8066, -1.75, 0.125, -0.125
8067, -1.875, 0.25, -0.125
8068, -1.75, 0, -0.1875
8069, -1.75, 0.25, -0.1875
8070, -1.5, 0, -0.125
8071, -1.5, 0.25, -0.125
8072, -1.625, 0, -0.125
8073, -1.5, 0.125, -0.125
8074, -1.625, 0.25, -0.125
8075, -1.5, 0, -0.1875
8076, -1.5, 0.25, -0.1875
8077, -1.25, 0, -0.125
8078, -1.25, 0.25, -0.125
8079, -1.375, 0, -0.125
8080, -1.25, 0.125, -0.125
8081, -1.375, 0.25, -0.125
8082, -1.25, 0, -0.1875
8083, -1.25, 0.25, -0.1875
8084, -1, 0, -0.125
8085, -1, 0.25, -0.125
8086, -1.125, 0, -0.125
8087, -1, 0.125, -0.125
8088, -1.125, 0.25, -0.125
8089, -1, 0, -0.1875
8090, -1, 0.25, -0.1875
8091, -0.75, 0, -0.125
8092, -0.75, 0.25, -0.125
8093, -0.875, 0, -0.125
8094, -0.75, 0.125, -0.125
8095, -0.875, 0.25, -0.125
8096, -0.75, 0, -0.1875
8097, -0.75, 0.25, -0.1875
8098, -0.5, 0, -0.125
8099, -0.5, 0.25, -0.125
8100, -0.625, 0, -0.125
8101, -0.5, 0.125, -0.125
8102, -0.625, 0.25, -0.125
8103, -0.5, 0, -0.1875
8104, -0.5, 0.25, -0.1875
8105, -0.25, 0, -0.125
8106, -0.25, 0.25, -0.125
8107, -0.375, 0, -0.125
8108, -0.25, 0.125, -0.125
8109, -0.375, 0.25, -0.125
8110, -0.25, 0, -0.1875
8111, -0.25, 0.25, -0.1875
8112, 0, 0, -0.125
8113, 0, 0.25, -0.125
8114, -0.125, 0, -0.125
8115, 0, 0.125, -0.125
8116, -0.125, 0.25, -0.125
8117, 0, 0, -0.1875
8118, 0, 0.25, -0.1875
8119, 0.25, 0, -0.125
8120, 0.25, 0.25, -0.125
8121, 0.125, 0, -0.125
8122, 0.25, 0.125, -0.125
8123, 0.125, 0.25, -0.125
8124, 0.25, 0, -0.1875
8125, 0.25, 0.25, -0.1875
8126, 0.5, 0, -0.125
8127, 0.5, 0.25, -0.125
8128, 0.375, 0, -0.125
8129, 0.5, 0.125, -0.125
8130, 0.375, 0.25, -0.125
8131, 0.5, 0, -0.1875
8132, 0.5, 0.25, -0.1875
8133, 0.75, 0, -0.125
8134, 0.75, 0.25, -0.125
8135, 0.625, 0, -0.125
8136, 0.75, 0.125, -0.125
8137, 0.625, 0.25, -0.125
8138, 0.75, 0, -0.1875
8139, 0.75, 0.25, -0.1875
8140, 1, 0, -0.125
8141, 1, 0.25, -0.125
8142, 0.875, 0, -0.125
8143, 1, 0.125, -0.125
8144, 0.875, 0.25, -0.125
8145, 1, 0, -0.1875
8146, 1, 0.25, -0.1875
8147, 1.25, 0, -0.125
8148, 1.25, 0.25, -0.125
8149, 1.125, 0, -0.125
8150, 1.25, 0.125, -0.125
8151, 1.125, 0.25, -0.125
8152, 1.25, 0, -0.1875
8153, 1.25, 0.25, -0.1875
8154, 1.5, 0, -0.125
8155, 1.5, 0.25, -0.125
8156, 1.375, 0, -0.125
8157, 1.5, 0.125, -0.125
8158, 1.375, 0.25, -0.125
8159, 1.5, 0, -0.1875
8160, 1.5, 0.25, -0.1875
8161, 1.75, 0, -0.125
8162, 1.75, 0.25, -0.125
8163, 1.625, 0, -0.125
8164, 1.75, 0.125, -0.125
8165, 1.625, 0.25, -0.125
8166, 1.75, 0, -0.1875
8167, 1.75, 0.25, -0.1875
8168, 2, 0, -0.125
8169, 2, 0.25, -0.125
8170, 1.875, 0, -0.125
8171, 2, 0.125, -0.125
8172, 1.875, 0.25, -0.125
8173, 2, 0, -0.1875
8174, 2, 0.25, -0.1875
8175, 2.25, 0, -0.125
8176, 2.25, 0.25, -0.125
8177, 2.125, 0, -0.125
8178, 2.25, 0.125, -0.125
8179, 2.125, 0.25, -0.125
8180, 2.25, 0, -0.1875
8181, 2.25, 0.25, -0.1875
8182, 2.5, 0, -0.125
8183, 2.5, 0.25, -0.125
8184, 2.375, 0, -0.125
8185, 2.5, 0.125, -0.125
8186, 2.375, 0.25, -0.125
8187, 2.5, 0, -0.1875
8188, 2.5, 0.25, -0.1875
8189, 2.75, 0, -0.125
8190, 2.75, 0.25, -0.125
8191, 2.625, 0, -0.125
8192, 2.75, 0.125, -0.125
8193, 2.625, 0.25, -0.125
8194, 2.75, 0, -0.1875
8195, 2.75, 0.25, -0.1875
8196, 3, 0, -0.125
8197, 3, 0.25, -0.125
8198, 2.875, 0, -0.125
8199, 3, 0.125, -0.125
8200, 2.875, 0.25, -0.125
8201, 3, 0, -0.1875
8202, 3, 0.25, -0.1875
8203, 3.25, 0, -0.125
8204, 3.25, 0.25, -0.125
8205, 3.125, 0, -0.125
8206, 3.25, 0.125, -0.125
8207, 3.125, 0.25, -0.125
8208, 3.25, 0, -0.1875
8209, 3.25, 0.25, -0.1875
8210, 3.5, 0, -0.125
8211, 3.5, 0.25, -0.125
8212, 3.375, 0, -0.125
8213, 3.5, 0.125, -0.125
8214, 3.375, 0.25, -0.125
8215, 3.5, 0, -0.1875
8216, 3.5, 0.25, -0.1875
8217, 3.75, 0, -0.125
8218, 3.75, 0.25, -0.125
8219, 3.625, 0, -0.125
8220, 3.75, 0.125, -0.125
8221, 3.625, 0.25, -0.125
8222, 3.75, 0, -0.1875
8223, 3.75, 0.25, -0.1875
8224, 4, 0, -0.125
8225, 4, 0.25, -0.125
8226, 3.875, 0, -0.125
8227, 4, 0.125, -0.125
8228, 3.875, 0.25, -0.125
8229, 4, 0, -0.1875
8230, 4, 0.25, -0.1875
8231, 4.25, 0, -0.125
8232, 4.25, 0.25, -0.125
8233, 4.125, 0, -0.125
8234, 4.25, 0.125, -0.125
8235, 4.125, 0.25, -0.125
8236, 4.25, 0, -0.1875
8237, 4.25, 0.25, -0.1875
8238, 4.5, 0, -0.125
8239, 4.5, 0.25, -0.125
8240, 4.375, 0, -0.125
8241, 4.5, 0.125, -0.125
8242, 4.375, 0.25, -0.125
8243, 4.5, 0, -0.1875
8244, 4.5, 0.25, -0.1875
8245, 4.75, 0, -0.125
8246, 4.75, 0.25, -0.125
8247, 4.625, 0, -0.125
8248, 4.75, 0.125, -0.125
8249, 4.625, 0.25, -0.125
8250, 4.75, 0, -0.1875
8251, 4.75, 0.25, -0.1875
8252, 5, 0, -0.125
8253, 5, 0.25, -0.125
8254, 4.875, 0, -0.125
8255, 5, 0.125, -0.125
8256, 4.875, 0.25, -0.125
8257, 5, 0, -0.1875
8258, 5, 0.25, -0.1875
8259, 5.25, 0, -0.125
8260, 5.25, 0.25, -0.125
8261, 5.125, 0, -0.125
8262, 5.25, 0.125, -0.125
8263, 5.125, 0.25, -0.125
8264, 5.25, 0, -0.1875
8265, 5.25, 0.25, -0.1875
8266, 5.5, 0, -0.125
8267, 5.5, 0.25, -0.125
8268, 5.375, 0, -0.125
8269, 5.5, 0.125, -0.125
8270, 5.375, 0.25, -0.125
8271, 5.5, 0, -0.1875
8272, 5.5, 0.25, -0.1875
8273, 5.75, 0, -0.125
8274, 5.75, 0.25, -0.125
8275, 5.625, 0, -0.125
8276, 5.75, 0.125, -0.125
8277, 5.625, 0.25, -0.125
8278, 5.75, 0, -0.1875
8279, 5.75, 0.25, -0.1875
8280, 6, 0, -0.125
8281, 6, 0.25, -0.125
8282, 5.875, 0, -0.125
8283, 6, 0.125, -0.125
8284, 5.875, 0.25, -0.125
8285, 6, 0, -0.1875
8286, 6, 0.25, -0.1875
8287, 6.25, 0, -0.125
8288, 6.25, 0.25, -0.125
8289, 6.125, 0, -0.125
8290, 6.25, 0.125, -0.125
8291, 6.125, 0.25, -0.125
8292, 6.25, 0, -0.1875
8293, 6.25, 0.25, -0.1875
8294, 6.5, 0, -0.125
8295, 6.5, 0.25, -0.125
8296, 6.375, 0, -0.125
8297, 6.5, 0.125, -0.125
8298, 6.375, 0.25, -0.125
8299, 6.5, 0, -0.1875
8300, 6.5, 0.25, -0.1875
8301, 6.75, 0, -0.125
8302, 6.75, 0.25, -0.125
8303, 6.625, 0, -0.125
8304, 6.75, 0.125, -0.125
8305, 6.625, 0.25, -0.125
8306, 6.75, 0, -0.1875
8307, 6.75, 0.25, -0.1875
8308, 7, 0, -0.125
8309, 7, 0.25, -0.125
8310, 6.875, 0, -0.125
8311, 7, 0.125, -0.125
8312, 6.875, 0.25, -0.125
8313, 7, 0, -0.1875
8314, 7, 0.25, -0.1875
8315, 7.25, 0, -0.125
8316, 7.25, 0.25, -0.125
8317, 7.125, 0, -0.125
8318, 7.25, 0.125, -0.125
8319, 7.125, 0.25, -0.125
8320, 7.25, 0, -0.1875
8321, 7.25, 0.25, -0.1875
8322, 7.5, 0, -0.125
8323, 7.5, 0.25, -0.125
8324, 7.375, 0, -0.125
8325, 7.5, 0.125, -0.125
8326, 7.375, 0.25, -0.125
8327, 7.5, 0, -0.1875
8328, 7.5, 0.25, -0.1875
8329, 7.75, 0, -0.125
8330, 7.75, 0.25, -0.125
8331, 7.625, 0, -0.125
8332, 7.75, 0.125, -0.125
8333, 7.625, 0.25, -0.125
8334, 7.75, 0, -0.1875
8335, 7.75, 0.25, -0.1875
8336, 8, 0, -0.125
8337, 8, 0.25, -0.125
8338, 7.875, 0, -0.125
8339, 8, 0.125, -0.125
8340, 7.875, 0.25, -0.125
8341, 8, 0, -0.1875
8342, 8, 0.25, -0.1875
8343, 8.25, 0, -0.125
8344, 8.25, 0.25, -0.125
8345, 8.125, 0, -0.125
8346, 8.25, 0.125, -0.125
8347, 8.125, 0.25, -0.125
8348, 8.25, 0, -0.1875
8349, 8.25, 0.25, -0.1875
8350, 8.5, 0, -0.125
8351, 8.5, 0.25, -0.125
8352, 8.375, 0, -0.125
8353, 8.5, 0.125, -0.125
8354, 8.375, 0.25, -0.125
8355, 8.5, 0, -0.1875
8356, 8.5, 0.25, -0.1875
8357, 8.75, 0, -0.125
8358, 8.75, 0.25, -0.125
8359, 8.625, 0, -0.125
8360, 8.75, 0.125, -0.125
8361, 8.625, 0.25, -0.125
8362, 8.75, 0, -0.1875
8363, 8.75, 0.25, -0.1875
8364, 9, 0, -0.125
8365, 9, 0.25, -0.125
8366, 8.875, 0, -0.125
8367, 9, 0.125, -0.125
8368, 8.875, 0.25, -0.125
8369, 9, 0, -0.1875
8370, 9, 0.25, -0.1875
8371, 9.25, 0, -0.125
8372, 9.25, 0.25, -0.125
8373, 9.125, 0, -0.125
8374, 9.25, 0.125, -0.125
8375, 9.125, 0.25, -0.125
8376, 9.25, 0, -0.1875
8377, 9.25, 0.25, -0.1875
8378, 9.5, 0, -0.125
8379, 9.5, 0.25, -0.125
8380, 9.375, 0, -0.125
8381, 9.5, 0.125, -0.125
8382, 9.375, 0.25, -0.125
8383, 9.5, 0, -0.1875
8384, 9.5, 0.25, -0.1875
8385, 9.75, 0, -0.125
8386, 9.75, 0.25, -0.125
8387, 9.625, 0, -0.125
8388, 9.75, 0.125, -0.125
8389, 9.625, 0.25, -0.125
8390, 9.75, 0, -0.1875
8391, 9.75, 0.25, -0.1875
8392, 10, 0, -0.125
8393, 10, 0.25, -0.125
8394, 9.875, 0, -0.125
8395, 10, 0.125, -0.125
8396, 9.875, 0.25, -0.125
8397, 10, 0, -0.1875
8398, 10, 0.25, -0.1875
8399, 10.25, 0, -0.125
8400, 10.25, 0.25, -0.125
8401, 10.125, 0, -0.125
8402, 10.25, 0.125, -0.125
8403, 10.125, 0.25, -0.125
8404, 10.25, 0, -0.1875
8405, 10.25, 0.25, -0.1875
8406, 10.5, 0, -0.125
8407, 10.5, 0.25, -0.125
8408, 10.375, 0, -0.125
8409, 10.5, 0.125, -0.125
8410, 10.375, 0.25, -0.125
8411, 10.5, 0, -0.1875
8412, 10.5, 0.25, -0.1875
8413, 10.75, 0, -0.125
8414, 10.75, 0.25, -0.125
8415, 10.625, 0, -0.125
8416, 10.75, 0.125, -0.125
8417, 10.625, 0.25, -0.125
8418, 10.75, 0, -0.1875
8419, 10.75, 0.25, -0.1875
8420, 11, 0, -0.125
8421, 11, 0.25, -0.125
8422, 10.875, 0, -0.125
8423, 11, 0.125, -0.125
8424, 10.875, 0.25, -0.125
8425, 11, 0, -0.1875
8426, 11, 0.25, -0.1875
8427, 11.25, 0, -0.125
8428, 11.25, 0.25, -0.125
8429, 11.125, 0, -0.125
8430, 11.25, 0.125, -0.125
8431, 11.125, 0.25, -0.125
8432, 11.25, 0, -0.1875
8433, 11.25, 0.25, -0.1875
8434, 11.5, 0, -0.125
8435, 11.5, 0.25, -0.125
8436, 11.375, 0, -0.125
8437, 11.5, 0.125, -0.125
8438, 11.375, 0.25, -0.125
8439, 11.5, 0, -0.1875
8440, 11.5, 0.25, -0.1875
8441, 11.75, 0, -0.125
8442, 11.75, 0.25, -0.125
8443, 11.625, 0, -0.125
8444, 11.75, 0.125, -0.125
8445, 11.625, 0.25, -0.125
8446, 11.75, 0, -0.1875
8447, 11.75, 0.25, -0.1875
8448, 12, 0, -0.125
8449, 12, 0.25, -0.125
8450, 11.875, 0, -0.125
8451, 12, 0.125, -0.125
8452, 11.875, 0.25, -0.125
8453, 12, 0, -0.1875
8454, 12, 0.25, -0.1875
8455, 12.25, 0, -0.125
8456, 12.25, 0.25, -0.125
8457, 12.125, 0, -0.125
8458, 12.25, 0.125, -0.125
8459, 12.125, 0.25, -0.125
8460, 12.25, 0, -0.1875
8461, 12.25, 0.25, -0.1875
8462, 12.5, 0, -0.125
8463, 12.5, 0.25, -0.125
8464, 12.375, 0, -0.125
8465, 12.5, 0.125, -0.125
8466, 12.375, 0.25, -0.125
8467, 12.5, 0, -0.1875
8468, 12.5, 0.25, -0.1875
8469, 12.75, 0, -0.125
8470, 12.75, 0.25, -0.125
8471, 12.625, 0, -0.125
8472, 12.75, 0.125, -0.125
8473, 12.625, 0.25, -0.125
8474, 12.75, 0, -0.1875
8475, 12.75, 0.25, -0.1875
8476, 13, 0, -0.125
8477, 13, 0.25, -0.125
8478, 12.875, 0, -0.125
8479, 13, 0.125, -0.125
8480, 12.875, 0.25, -0.125
8481, 13, 0, -0.1875
8482, 13, 0.25, -0.1875
8483, 13.25, 0, -0.125
8484, 13.25, 0.25, -0.125
8485, 13.125, 0, -0.125
8486, 13.25, 0.125, -0.125
8487, 13.125, 0.25, -0.125
8488, 13.25, 0, -0.1875
8489, 13.25, 0.25, -0.1875
8490, 13.5, 0, -0.125
8491, 13.5, 0.25, -0.125
8492, 13.375, 0, -0.125
8493, 13.5, 0.125, -0.125
8494, 13.375, 0.25, -0.125
8495, 13.5, 0, -0.1875
8496, 13.5, 0.25, -0.1875
8497, 13.75, 0, -0.125
8498, 13.75, 0.25, -0.125
8499, 13.625, 0, -0.125
8500, 13.75, 0.125, -0.125
8501, 13.625, 0.25, -0.125
8502, 13.75, 0, -0.1875
8503, 13.75, 0.25, -0.1875
8504, 14, 0, -0.125
8505, 14, 0.25, -0.125
8506, 13.875, 0, -0.125
8507, 14, 0.125, -0.125
8508, 13.875, 0.25, -0.125
8509, 14, 0, -0.1875
8510, 14, 0.25, -0.1875
8511, 14.25, 0, -0.125
8512, 14.25, 0.25, -0.125
8513, 14.125, 0, -0.125
8514, 14.25, 0.125, -0.125
8515, 14.125, 0.25, -0.125
8516, 14.25, 0, -0.1875
8517, 14.25, 0.25, -0.1875
8518, 14.5, 0, -0.125
8519, 14.5, 0.25, -0.125
8520, 14.375, 0, -0.125
8521, 14.5, 0.125, -0.125
8522, 14.375, 0.25, -0.125
8523, 14.5, 0, -0.1875
8524, 14.5, 0.25, -0.1875
8525, 14.75, 0, -0.125
8526, 14.75, 0.25, -0.125
8527, 14.625, 0, -0.125
8528, 14.75, 0.125, -0.125
8529, 14.625, 0.25, -0.125
8530, 14.75, 0, -0.1875
8531, 14.75, 0.25, -0.1875
8532, 15, 0, -0.125
8533, 15, 0.25, -0.125
8534, 14.875, 0, -0.125
8535, 15, 0.125, -0.125
8536, 14.875, 0.25, -0.125
8537, 15, 0, -0.1875
8538, 15, 0.25, -0.1875
8539, 15.25, 0, -0.125
8540, 15.25, 0.25, -0.125
8541, 15.125, 0, -0.125
8542, 15.25, 0.125, -0.125
8543, 15.125, 0.25, -0.125
8544, 15.25, 0, -0.1875
8545, 15.25, 0.25, -0.1875
8546, 15.5, 0, -0.125
8547, 15.5, 0.25, -0.125
8548, 15.375, 0, -0.125
8549, 15.5, 0.125, -0.125
8550, 15.375, 0.25, -0.125
8551, 15.5, 0, -0.1875
8552, 15.5, 0.25, -0.1875
8553, 15.75, 0, -0.125
8554, 15.75, 0.25, -0.125
8555, 15.625, 0, -0.125
8556, 15.75, 0.125, -0.125
8557, 15.625, 0.25, -0.125
8558, 15.75, 0, -0.1875
8559, 15.75, 0.25, -0.1875
8560, 16, 0, -0.125
8561, 16, 0.25, -0.125
8562, 15.875, 0, -0.125
8563, 16, 0.125, -0.125
8564, 15.875, 0.25, -0.125
8565, 16, 0, -0.1875
8566, 16, 0.25, -0.1875
8567, 16.25, 0, -0.125
8568, 16.25, 0.25, -0.125
8569, 16.125, 0, -0.125
8570, 16.25, 0.125, -0.125
8571, 16.125, 0.25, -0.125
8572, 16.25, 0, -0.1875
8573, 16.25, 0.25, -0.1875
8574, 16.5, 0, -0.125
8575, 16.5, 0.25, -0.125
8576, 16.375, 0, -0.125
8577, 16.5, 0.125, -0.125
8578, 16.375, 0.25, -0.125
8579, 16.5, 0, -0.1875
8580, 16.5, 0.25, -0.1875
8581, 16.75, 0, -0.125
8582, 16.75, 0.25, -0.125
8583, 16.625, 0, -0.125
8584, 16.75, 0.125, -0.125
8585, 16.625, 0.25, -0.125
8586, 16.75, 0, -0.1875
8587, 16.75, 0.25, -0.1875
8588, 17, 0, -0.125
8589, 17, 0.25, -0.125
8590, 16.875, 0, -0.125
8591, 17, 0.125, -0.125
8592, 16.875, 0.25, -0.125
8593, 17, 0, -0.1875
8594, 17, 0.25, -0.1875
8595, 17.25, 0, -0.125
8596, 17.25, 0.25, -0.125
8597, 17.125, 0, -0.125
8598, 17.25, 0.125, -0.125
8599, 17.125, 0.25, -0.125
8600, 17.25, 0, -0.1875
8601, 17.25, 0.25, -0.1875
8602, 17.5, 0, -0.125
8603, 17.5, 0.25, -0.125
8604, 17.375, 0, -0.125
8605, 17.5, 0.125, -0.125
8606, 17.375, 0.25, -0.125
8607, 17.5, 0, -0.1875
8608, 17.5, 0.25, -0.1875
8609, 17.75, 0, -0.125
8610, 17.75, 0.25, -0.125
8611, 17.625, 0, -0.125
8612, 17.75, 0.125, -0.125
8613, 17.625, 0.25, -0.125
8614, 17.75, 0, -0.1875
8615, 17.75, 0.25, -0.1875
8616, 18, 0, -0.125
8617, 18, 0.25, -0.125
8618, 17.875, 0, -0.125
8619, 18, 0.125, -0.125
8620, 17.875, 0.25, -0.125
8621, 18, 0, -0.1875
8622, 18, 0.25, -0.1875
8623, 18.25, 0, -0.125
8624, 18.25, 0.25, -0.125
8625, 18.125, 0, -0.125
8626, 18.25, 0.125, -0.125
8627, 18.125, 0.25, -0.125
8628, 18.25, 0, -0.1875
8629, 18.25, 0.25, -0.1875
8630, 18.5, 0, -0.125
8631, 18.5, 0.25, -0.125
8632, 18.375, 0, -0.125
8633, 18.5, 0.125, -0.125
8634, 18.375, 0.25, -0.125
8635, 18.5, 0, -0.1875
8636, 18.5, 0.25, -0.1875
8637, 18.75, 0, -0.125
8638, 18.75, 0.25, -0.125
8639, 18.625, 0, -0.125
8640, 18.75, 0.125, -0.125
8641, 18.625, 0.25, -0.125
8642, 18.75, 0, -0.1875
8643, 18.75, 0.25, -0.1875
8644, 19, 0, -0.125
8645, 19, 0.25, -0.125
8646, 18.875, 0, -0.125
8647, 19, 0.125, -0.125
8648, 18.875, 0.25, -0.125
8649, 19, 0, -0.1875
8650, 19, 0.25, -0.1875
8651, 19.25, 0, -0.125
8652, 19.25, 0.25, -0.125
8653, 19.125, 0, -0.125
8654, 19.25, 0.125, -0.125
8655, 19.125, 0.25, -0.125
8656, 19.25, 0, -0.1875
8657, 19.25, 0.25, -0.1875
8658, 19.5, 0, -0.125
8659, 19.5, 0.25, -0.125
8660, 19.375, 0, -0.125
8661, 19.5, 0.125, -0.125
8662, 19.375, 0.25, -0.125
8663, 19.5, 0, -0.1875
8664, 19.5, 0.25, -0.1875
8665, 19.75, 0, -0.125
8666, 19.75, 0.25, -0.125
8667, 19.625, 0, -0.125
8668, 19.75, 0.125, -0.125
8669, 19.625, 0.25, -0.125
8670, 19.75, 0, -0.1875
8671, 19.75, 0.25, -0.1875
8672, 20, 0, -0.125
8673, 20, 0.25, -0.125
8674, 19.875, 0, -0.125
8675, 20, 0.125, -0.125
8676, 19.875, 0.25, -0.125
8677, 20, 0, -0.1875
8678, 20, 0.25, -0.1875
8679, -20, 0, 0
8680, -19.75, 0, 0
8681, -19.75, 0.25, 0
8682, -20, 0.25, 0
8683, -19.875, 0, 0
8684, -19.75, 0.125, 0
8685, -19.875, 0.25, 0
8686, -20, 0.125, 0
8687, -20, 0, -0.0625
8688, -19.75, 0, -0.0625
8689, -19.75, 0.25, -0.0625
8690, -20, 0.25, -0.0625
8691, -19.5, 0, 0
8692, -19.5, 0.25, 0
8693, -19.625, 0, 0
8694, -19.5, 0.125, 0
8695, -19.625, 0.25, 0
8696, -19.5, 0, -0.0625
8697, -19.5, 0.25, -0.0625
8698, -19.25, 0, 0
8699, -19.25, 0.25, 0
8700, -19.375, 0, 0
8701, -19.25, 0.125, 0
8702, -19.375, 0.25, 0
8703, -19.25, 0, -0.0625
8704, -19.25, 0.25, -0.0625
8705, -19, 0, 0
8706, -19, 0.25, 0
8707, -19.125, 0, 0
8708, -19, 0.125, 0
8709, -19.125, 0.25, 0
8710, -19, 0, -0.0625
8711, -19, 0.25, -0.0625
8712, -18.75, 0, 0
8713, -18.75, 0.25, 0
8714, -18.875, 0, 0
8715, -18.75, 0.125, 0
8716, -18.875, 0.25, 0
8717, -18.75, 0, -0.0625
8718, -18.75, 0.25, -0.0625
8719, -18.5, 0, 0
8720, -18.5, 0.25, 0
8721, -18.625, 0, 0
8722, -18.5, 0.125, 0
8723, -18.625, 0.25, 0
8724, -18.5, 0, -0.0625
8725, -18.5, 0.25, -0.0625
8726, -18.25, 0, 0
8727, -18.25, 0.25, 0
8728, -18.375, 0, 0
8729, -18.25, 0.125, 0
8730, -18.375, 0.25, 0
8731, -18.25, 0, -0.0625
8732, -18.25, 0.25, -0.0625
8733, -18, 0, 0
8734, -18, 0.25, 0
8735, -18.125, 0, 0
8736, -18, 0.125, 0
8737, -18.125, 0.25, 0
8738, -18, 0, -0.0625
8739, -18, 0.25, -0.0625
8740, -17.75, 0, 0
8741, -17.75, 0.25, 0
8742, -17.875, 0, 0
8743, -17.75, 0.125, 0
8744, -17.875, 0.25, 0
8745, -17.75, 0, -0.0625
8746, -17.75, 0.25, -0.0625
8747, -17.5, 0, 0
8748, -17.5, 0.25, 0
8749, -17.625, 0, 0
8750, -17.5, 0.125, 0
8751, -17.625, 0.25, 0
8752, -17.5, 0, -0.0625
8753, -17.5, 0.25, -0.0625
8754, -17.25, 0, 0
8755, -17.25, 0.25, 0
8756, -17.375, 0, 0
8757, -17.25, 0.125, 0
8758, -17.375, 0.25, 0
8759, -17.25, 0, -0.0625
8760, -17.25, 0.25, -0.0625
8761, -17, 0, 0
8762, -17, 0.25, 0
8763, -17.125, 0, 0
8764, -17, 0.125, 0
8765, -17.125, 0.25, 0
8766, -17, 0, -0.0625
8767, -17, 0.25, -0.0625
8768, -16.75, 0, 0
8769, -16.75, 0.25, 0
8770, -16.875, 0, 0
8771, -16.75, 0.125, 0
8772, -16.875, 0.25, 0
8773, -16.75, 0, -0.0625
8774, -16.75, 0.25, -0.0625
8775, -16.5, 0, 0
8776, -16.5, 0.25, 0
8777, -16.625, 0, 0
8778, -16.5, 0.125, 0
8779, -16.625, 0.25, 0
8780, -16.5, 0, -0.0625
8781, -16.5, 0.25, -0.0625
8782, -16.25, 0, 0
8783, -16.25, 0.25, 0
8784, -16.375, 0, 0
8785, -16.25, 0.125, 0
8786, -16.375, 0.25, 0
8787, -16.25, 0, -0.0625
8788, -16.25, 0.25, -0.0625
8789, -16, 0, 0
8790, -16, 0.25, 0
8791, -16.125, 0, 0
8792, -16, 0.125, 0
8793, -16.125, 0.25, 0
8794, -16, 0, -0.0625
8795, -16, 0.25, -0.0625
8796, -15.75, 0, 0
8797, -15.75, 0.25, 0
8798, -15.875, 0, 0
8799, -15.75, 0.125, 0
8800, -15.875, 0.25, 0
8801, -15.75, 0, -0.0625
8802, -15.75, 0.25, -0.0625
8803, -15.5, 0, 0
8804, -15.5, 0.25, 0
8805, -15.625, 0, 0
8806, -15.5, 0.125, 0
8807, -15.625, 0.25, 0
8808, -15.5, 0, -0.0625
8809, -15.5, 0.25, -0.0625
8810, -15.25, 0, 0
8811, -15.25, 0.25, 0
8812, -15.375, 0, 0
8813, -15.25, 0.125, 0
8814, -15.375, 0.25, 0
8815, -15.25, 0, -0.0625
8816, -15.25, 0.25, -0.0625
8817, -15, 0, 0
8818, -15, 0.25, 0
8819, -15.125, 0, 0
8820, -15, 0.125, 0
8821, -15.125, 0.25, 0
8822, -15, 0, -0.0625
8823, -15, 0.25, -0.0625
8824, -14.75, 0, 0
8825, -14.75, 0.25, 0
8826, -14.875, 0, 0
8827, -14.75, 0.125, 0
8828, -14.875, 0.25, 0
8829, -14.75, 0, -0.0625
8830, -14.75, 0.25, -0.0625
8831, -14.5, 0, 0
8832, -14.5, 0.25, 0
8833, -14.625, 0, 0
8834, -14.5, 0.125, 0
8835, -14.625, 0.25, 0
8836, -14.5, 0, -0.0625
8837, -14.5, 0.25, -0.0625
8838, -14.25, 0, 0
8839, -14.25, 0.25, 0
8840, -14.375, 0, 0
8841, -14.25, 0.125, 0
8842, -14.375, 0.25, 0
8843, -14.25, 0, -0.0625
8844, -14.25, 0.25, -0.0625
8845, -14, 0, 0
8846, -14, 0.25, 0
8847, -14.125, 0, 0
8848, -14, 0.125, 0
8849, -14.125, 0.25, 0
8850, -14, 0, -0.0625
8851, -14, 0.25, -0.0625
8852, -13.75, 0, 0
8853, -13.75, 0.25, 0
8854, -13.875, 0, 0
8855, -13.75, 0.125, 0
8856, -13.875, 0.25, 0
8857, -13.75, 0, -0.0625
8858, -13.75, 0.25, -0.0625
8859, -13.5, 0, 0
8860, -13.5, 0.25, 0
8861, -13.625, 0, 0
8862, -13.5, 0.125, 0
8863, -13.625, 0.25, 0
8864, -13.5, 0, -0.0625
8865, -13.5, 0.25, -0.0625
8866, -13.25, 0, 0
8867, -13.25, 0.25, 0
8868, -13.375, 0, 0
8869, -13.25, 0.125, 0
8870, -13.375, 0.25, 0
8871, -13.25, 0, -0.0625
8872, -13.25, 0.25, -0.0625
8873, -13, 0, 0
8874, -13, 0.25, 0
8875, -13.125, 0, 0
8876, -13, 0.125, 0
8877, -13.125, 0.25, 0
8878, -13, 0, -0.0625
8879, -13, 0.25, -0.0625
8880, -12.75, 0, 0
8881, -12.75, 0.25, 0
8882, -12.875, 0, 0
8883, -12.75, 0.125, 0
8884, -12.875, 0.25, 0
8885, -12.75, 0, -0.0625
8886, -12.75, 0.25, -0.0625
8887, -12.5, 0, 0
8888, -12.5, 0.25, 0
8889, -12.625, 0, 0
8890, -12.5, 0.125, 0
8891, -12.625, 0.25, 0
8892, -12.5, 0, -0.0625
8893, -12.5, 0.25, -0.0625
8894, -12.25, 0, 0
8895, -12.25, 0.25, 0
8896, -12.375, 0, 0
8897, -12.25, 0.125, 0
8898, -12.375, 0.25, 0
8899, -12.25, 0, -0.0625
8900, -12.25, 0.25, -0.0625
8901, -12, 0, 0
8902, -12, 0.25, 0
8903, -12.125, 0, 0
8904, -12, 0.125, 0
8905, -12.125, 0.25, 0
8906, -12, 0, -0.0625
8907, -12, 0.25, -0.0625
8908, -11.75, 0, 0
8909, -11.75, 0.25, 0
8910, -11.875, 0, 0
8911, -11.75, 0.125, 0
8912, -11.875, 0.25, 0
8913, -11.75, 0, -0.0625
8914, -11.75, 0.25, -0.0625
8915, -11.5, 0, 0
8916, -11.5, 0.25, 0
8917, -11.625, 0, 0
8918, -11.5, 0.125, 0
8919, -11.625, 0.25, 0
8920, -11.5, 0, -0.0625
8921, -11.5, 0.25, -0.0625
8922, -11.25, 0, 0
8923, -11.25, 0.25, 0
8924, -11.375, 0, 0
8925, -11.25, 0.125, 0
8926, -11.375, 0.25, 0
8927, -11.25, 0, -0.0625
8928, -11.25, 0.25, -0.0625
8929, -11, 0, 0
8930, -11, 0.25, 0
8931, -11.125, 0, 0
8932, -11, 0.125, 0
8933, -11.125, 0.25, 0
8934, -11, 0, -0.0625
8935, -11, 0.25, -0.0625
8936, -10.75, 0, 0
8937, -10.75, 0.25, 0
8938, -10.875, 0, 0
8939, -10.75, 0.125, 0
8940, -10.875, 0.25, 0
8941, -10.75, 0, -0.0625
8942, -10.75, 0.25, -0.0625
8943, -10.5, 0, 0
8944, -10.5, 0.25, 0
8945, -10.625, 0, 0
8946, -10.5, 0.125, 0
8947, -10.625, 0.25, 0
8948, -10.5, 0, -0.0625
8949, -10.5, 0.25, -0.0625
8950, -10.25, 0, 0
8951, -10.25, 0.25, 0
8952, -10.375, 0, 0
8953, -10.25, 0.125, 0
8954, -10.375, 0.25, 0
8955, -10.25, 0, -0.0625
8956, -10.25, 0.25, -0.0625
8957, -10, 0, 0
8958, -10, 0.25, 0
8959, -10.125, 0, 0
8960, -10, 0.125, 0
8961, -10.125, 0.25, 0
8962, -10, 0, -0.0625
8963, -10, 0.25, -0.0625
8964, -9.75, 0, 0
8965, -9.75, 0.25, 0
8966, -9.875, 0, 0
8967, -9.75, 0.125, 0
8968, -9.875, 0.25, 0
8969, -9.75, 0, -0.0625
8970, -9.75, 0.25, -0.0625
8971, -9.5, 0, 0
8972, -9.5, 0.25, 0
8973, -9.625, 0, 0
8974, -9.5, 0.125, 0
8975, -9.625, 0.25, 0
8976, -9.5, 0, -0.0625
8977, -9.5, 0.25, -0.0625
8978, -9.25, 0, 0
8979, -9.25, 0.25, 0
8980, -9.375, 0, 0
8981, -9.25, 0.125, 0
8982, -9.375, 0.25, 0
8983, -9.25, 0, -0.0625
8984, -9.25, 0.25, -0.0625
8985, -9, 0, 0
8986, -9, 0.25, 0
8987, -9.125, 0, 0
8988, -9, 0.125, 0
8989, -9.125, 0.25, 0
8990, -9, 0, -0.0625
8991, -9, 0.25, -0.0625
8992, -8.75, 0, 0
8993, -8.75, 0.25, 0
8994, -8.875, 0, 0
8995, -8.75, 0.125, 0
8996, -8.875, 0.25, 0
8997, -8.75, 0, -0.0625
8998, -8.75, 0.25, -0.0625
8999, -8.5, 0, 0
9000, -8.5, 0.25, 0
9001, -8.625, 0, 0
9002, -8.5, 0.125, 0
9003, -8.625, 0.25, 0
9004, -8.5, 0, -0.0625
9005, -8.5, 0.25, -0.0625
9006, -8.25, 0, 0
9007, -8.25, 0.25, 0
9008, -8.375, 0, 0
9009, -8.25, 0.125, 0
9010, -8.375, 0.25, 0
9011, -8.25, 0, -0.0625
9012, -8.25, 0.25, -0.0625
9013, -8, 0, 0
9014, -8, 0.25, 0
9015, -8.125, 0, 0
9016, -8, 0.125, 0
9017, -8.125, 0.25, 0
9018, -8, 0, -0.0625
9019, -8, 0.25, -0.0625
9020, -7.75, 0, 0
9021, -7.75, 0.25, 0
9022, -7.875, 0, 0
9023, -7.75, 0.125, 0
9024, -7.875, 0.25, 0
9025, -7.75, 0, -0.0625
9026, -7.75, 0.25, -0.0625
9027, -7.5, 0, 0
9028, -7.5, 0.25, 0
9029, -7.625, 0, 0
9030, -7.5, 0.125, 0
9031, -7.625, 0.25, 0
9032, -7.5, 0, -0.0625
9033, -7.5, 0.25, -0.0625
9034, -7.25, 0, 0
9035, -7.25, 0.25, 0
9036, -7.375, 0, 0
9037, -7.25, 0.125, 0
9038, -7.375, 0.25, 0
9039, -7.25, 0, -0.0625
9040, -7.25, 0.25, -0.0625
9041, -7, 0, 0
9042, -7, 0.25, 0
9043, -7.125, 0, 0
9044, -7, 0.125, 0
9045, -7.125, 0.25, 0
9046, -7, 0, -0.0625
9047, -7, 0.25, -0.0625
9048, -6.75, 0, 0
9049, -6.75, 0.25, 0
9050, -6.875, 0, 0
9051, -6.75, 0.125, 0
9052, -6.875, 0.25, 0
9053, -6.75, 0, -0.0625
9054, -6.75, 0.25, -0.0625
9055, -6.5, 0, 0
9056, -6.5, 0.25, 0
9057, -6.625, 0, 0
9058, -6.5, 0.125, 0
9059, -6.625, 0.25, 0
9060, -6.5, 0, -0.0625
9061, -6.5, 0.25, -0.0625
9062, -6.25, 0, 0
9063, -6.25, 0.25, 0
9064, -6.375, 0, 0
9065, -6.25, 0.125, 0
9066, -6.375, 0.25, 0
9067, -6.25, 0, -0.0625
9068, -6.25, 0.25, -0.0625
9069, -6, 0, 0
9070, -6, 0.25, 0
9071, -6.125, 0, 0
9072, -6, 0.125, 0
9073, -6.125, 0.25, 0
9074, -6, 0, -0.0625
9075, -6, 0.25, -0.0625
9076, -5.75, 0, 0
9077, -5.75, 0.25, 0
9078, -5.875, 0, 0
9079, -5.75, 0.125, 0
9080, -5.875, 0.25, 0
9081, -5.75, 0, -0.0625
9082, -5.75, 0.25, -0.0625
9083, -5.5, 0, 0
9084, -5.5, 0.25, 0
9085, -5.625, 0, 0
9086, -5.5, 0.125, 0
9087, -5.625, 0.25, 0
9088, -5.5, 0, -0.0625
9089, -5.5, 0.25, -0.0625
9090, -5.25, 0, 0
9091, -5.25, 0.25, 0
9092, -5.375, 0, 0
9093, -5.25, 0.125, 0
9094, -5.375, 0.25, 0
9095, -5.25, 0, -0.0625
9096, -5.25, 0.25, -0.0625
9097, -5, 0, 0
9098, -5, 0.25, 0
9099, -5.125, 0, 0
9100, -5, 0.125, 0
9101, -5.125, 0.25, 0
9102, -5, 0, -0.0625
9103, -5, 0.25, -0.0625
9104, -4.75, 0, 0
9105, -4.75, 0.25, 0
9106, -4.875, 0, 0
9107, -4.75, 0.125, 0
9108, -4.875, 0.25, 0
9109, -4.75, 0, -0.0625
9110, -4.75, 0.25, -0.0625
9111, -4.5, 0, 0
9112, -4.5, 0.25, 0
9113, -4.625, 0, 0
9114, -4.5, 0.125, 0
9115, -4.625, 0.25, 0
9116, -4.5, 0, -0.0625
9117, -4.5, 0.25, -0.0625
9118, -4.25, 0, 0
9119, -4.25, 0.25, 0
9120, -4.375, 0, 0
9121, -4.25, 0.125, 0
9122, -4.375, 0.25, 0
9123, -4.25, 0, -0.0625
9124, -4.25, 0.25, -0.0625
9125, -4, 0, 0
9126, -4, 0.25, 0
9127, -4.125, 0, 0
9128, -4, 0.125, 0
9129, -4.125, 0.25, 0
9130, -4, 0, -0.0625
9131, -4, 0.25, -0.0625
9132, -3.75, 0, 0
9133, -3.75, 0.25, 0
9134, -3.875, 0, 0
9135, -3.75, 0.125, 0
9136, -3.875, 0.25, 0
9137, -3.75, 0, -0.0625
9138, -3.75, 0.25, -0.0625
9139, -3.5, 0, 0
9140, -3.5, 0.25, 0
9141, -3.625, 0, 0
9142, -3.5, 0.125, 0
9143, -3.625, 0.25, 0
9144, -3.5, 0, -0.0625
9145, -3.5, 0.25, -0.0625
9146, -3.25, 0, 0
9147, -3.25, 0.25, 0
9148, -3.375, 0, 0
9149, -3.25, 0.125, 0
9150, -3.375, 0.25, 0
9151, -3.25, 0, -0.0625
9152, -3.25, 0.25, -0.0625
9153, -3, 0, 0
9154, -3, 0.25, 0
9155, -3.125, 0, 0
9156, -3, 0.125, 0
9157, -3.125, 0.25, 0
9158, -3, 0, -0.0625
9159, -3, 0.25, -0.0625
9160, -2.75, 0, 0
9161, -2.75, 0.25, 0
9162, -2.875, 0, 0
9163, -2.75, 0.125, 0
9164, -2.875, 0.25, 0
9165, -2.75, 0, -0.0625
9166, -2.75, 0.25, -0.0625
9167, -2.5, 0, 0
9168, -2.5, 0.25, 0
9169, -2.625, 0, 0
9170, -2.5, 0.125, 0
9171, -2.625, 0.25, 0
9172, -2.5, 0, -0.0625
9173, -2.5, 0.25, -0.0625
9174, -2.25, 0, 0
9175, -2.25, 0.25, 0
9176, -2.375, 0, 0
9177, -2.25, 0.125, 0
9178, -2.375, 0.25, 0
9179, -2.25, 0, -0.0625
9180, -2.25, 0.25, -0.0625
9181, -2, 0, 0
9182, -2, 0.25, 0
9183, -2.125, 0, 0
9184, -2, 0.125, 0
9185, -2.125, 0.25, 0
9186, -2, 0, -0.0625
9187, -2, 0.25, -0.0625
9188, -1.75, 0, 0
9189, -1.75, 0.25, 0
9190, -1.875, 0, 0
9191, -1.75, 0.125, 0
9192, -1.875, 0.25, 0
9193, -1.75, 0, -0.0625
9194, -1.75, 0.25, -0.0625
9195, -1.5, 0, 0
9196, -1.5, 0.25, 0
9197, -1.625, 0, 0
9198, -1.5, 0.125, 0
9199, -1.625, 0.25, 0
9200, -1.5, 0, -0.0625
9201, -1.5, 0.25, -0.0625
9202, -1.25, 0, 0
9203, -1.25, 0.25, 0
9204, -1.375, 0, 0
9205, -1.25, 0.125, 0
9206, -1.375, 0.25, 0
9207, -1.25, 0, -0.0625
9208, -1.25, 0.25, -0.0625
9209, -1, 0, 0
9210, -1, 0.25, 0
9211, -1.125, 0, 0
9212, -1, 0.125, 0
9213, -1.125, 0.25, 0
9214, -1, 0, -0.0625
9215, -1, 0.25, -0.0625
9216, -0.75, 0, 0
9217, -0.75, 0.25, 0
9218, -0.875, 0, 0
9219, -0.75, 0.125, 0
9220, -0.875, 0.25, 0
9221, -0.75, 0, -0.0625
9222, -0.75, 0.25, -0.0625
9223, -0.5, 0, 0
9224, -0.5, 0.25, 0
9225, -0.625, 0, 0
9226, -0.5, 0.125, 0
9227, -0.625, 0.25, 0
9228, -0.5, 0, -0.0625
9229, -0.5, 0.25, -0.0625
9230, -0.25, 0, 0
9231, -0.25, 0.25, 0
9232, -0.375, 0, 0
9233, -0.25, 0.125, 0
9234, -0.375, 0.25, 0
9235, -0.25, 0, -0.0625
9236, -0.25, 0.25, -0.0625
9237, 0, 0, 0
9238, 0, 0.25, 0
9239, -0.125, 0, 0
9240, 0, 0.125, 0
9241, -0.125, 0.25, 0
9242, 0, 0, -0.0625
9243, 0, 0.25, -0.0625
9244, 0.25, 0, 0
9245, 0.25, 0.25, 0
9246, 0.125, 0, 0
9247, 0.25, 0.125, 0
9248, 0.125, 0.25, 0
9249, 0.25, 0, -0.0625
9250, 0.25, 0.25, -0.0625
9251, 0.5, 0, 0
9252, 0.5, 0.25, 0
9253, 0.375, 0, 0
9254, 0.5, 0.125, 0
9255, 0.375, 0.25, 0
9256, 0.5, 0, -0.0625
9257, 0.5, 0.25, -0.0625
9258, 0.75, 0, 0
9259, 0.75, 0.25, 0
9260, 0.625, 0, 0
9261, 0.75, 0.125, 0
9262, 0.625, 0.25, 0
9263, 0.75, 0, -0.0625
9264, 0.75, 0.25, -0.0625
9265, 1, 0, 0
9266, 1, 0.25, 0
9267, 0.875, 0, 0
9268, 1, 0.125, 0
9269, 0.875, 0.25, 0
9270, 1, 0, -0.0625
9271, 1, 0.25, -0.0625
9272, 1.25, 0, 0
9273, 1.25, 0.25, 0
9274, 1.125, 0, 0
9275, 1.25, 0.125, 0
9276, 1.125, 0.25, 0
9277, 1.25, 0, -0.0625
9278, 1.25, 0.25, -0.0625
9279, 1.5, 0, 0
9280, 1.5, 0.25, 0
9281, 1.375, 0, 0
9282, 1.5, 0.125, 0
9283, 1.375, 0.25, 0
9284, 1.5, 0, -0.0625
9285, 1.5, 0.25, -0.0625
9286, 1.75, 0, 0
9287, 1.75, 0.25, 0
9288, 1.625, 0, 0
9289, 1.75, 0.125, 0
9290, 1.625, 0.25, 0
9291, 1.75, 0, -0.0625
9292, 1.75, 0.25, -0.0625
9293, 2, 0, 0
9294, 2, 0.25, 0
9295, 1.875, 0, 0
9296, 2, 0.125, 0
9297, 1.875, 0.25, 0
9298, 2, 0, -0.0625
9299, 2, 0.25, -0.0625
9300, 2.25, 0, 0
9301, 2.25, 0.25, 0
9302, 2.125, 0, 0
9303, 2.25, 0.125, 0
9304, 2.125, 0.25, 0
9305, 2.25, 0, -0.0625
9306, 2.25, 0.25, -0.0625
9307, 2.5, 0, 0
9308, 2.5, 0.25, 0
9309, 2.375, 0, 0
9310, 2.5, 0.125, 0
9311, 2.375, 0.25, 0
9312, 2.5, 0, -0.0625
9313, 2.5, 0.25, -0.0625
9314, 2.75, 0, 0
9315, 2.75, 0.25, 0
9316, 2.625, 0, 0
9317, 2.75, 0.125, 0
9318, 2.625, 0.25, 0
9319, 2.75, 0, -0.0625
9320, 2.75, 0.25, -0.0625
9321, 3, 0, 0
9322, 3, 0.25, 0
9323, 2.875, 0, 0
9324, 3, 0.125, 0
9325, 2.875, 0.25, 0
9326, 3, 0, -0.0625
9327, 3, 0.25, -0.0625
9328, 3.25, 0, 0
9329, 3.25, 0.25, 0
9330, 3.125, 0, 0
9331, 3.25, 0.125, 0
9332, 3.125, 0.25, 0
9333, 3.25, 0, -0.0625
9334, 3.25, 0.25, -0.0625
9335, 3.5, 0, 0
9336, 3.5, 0.25, 0
9337, 3.375, 0, 0
9338, 3.5, 0.125, 0
9339, 3.375, 0.25, 0
9340, 3.5, 0, -0.0625
9341, 3.5, 0.25, -0.0625
9342, 3.75, 0, 0
9343, 3.75, 0.25, 0
9344, 3.625, 0, 0
9345, 3.75, 0.125, 0
9346, 3.625, 0.25, 0
9347, 3.75, 0, -0.0625
9348, 3.75, 0.25, -0.0625
9349, 4, 0, 0
9350, 4, 0.25, 0
9351, 3.875, 0, 0
9352, 4, 0.125, 0
9353, 3.875, 0.25, 0
9354, 4, 0, -0.0625
9355, 4, 0.25, -0.0625
9356, 4.25, 0, 0
9357, 4.25, 0.25, 0
9358, 4.125, 0, 0
9359, 4.25, 0.125, 0
9360, 4.125, 0.25, 0
9361, 4.25, 0, -0.0625
9362, 4.25, 0.25, -0.0625
9363, 4.5, 0, 0
9364, 4.5, 0.25, 0
9365, 4.375, 0, 0
9366, 4.5, 0.125, 0
9367, 4.375, 0.25, 0
9368, 4.5, 0, -0.0625
9369, 4.5, 0.25, -0.0625
9370, 4.75, 0, 0
9371, 4.75, 0.25, 0
9372, 4.625, 0, 0
9373, 4.75, 0.125, 0
9374, 4.625, 0.25, 0
9375, 4.75, 0, -0.0625
9376, 4.75, 0.25, -0.0625
9377, 5, 0, 0
9378, 5, 0.25, 0
9379, 4.875, 0, 0
9380, 5, 0.125, 0
9381, 4.875, 0.25, 0
9382, 5, 0, -0.0625
9383, 5, 0.25, -0.0625
9384, 5.25, 0, 0
9385, 5.25, 0.25, 0
9386, 5.125, 0, 0
9387, 5.25, 0.125, 0
9388, 5.125, 0.25, 0
9389, 5.25, 0, -0.0625
9390, 5.25, 0.25, -0.0625
9391, 5.5, 0, 0
9392, 5.5, 0.25, 0
9393, 5.375, 0, 0
9394, 5.5, 0.125, 0
9395, 5.375, 0.25, 0
9396, 5.5, 0, -0.0625
9397, 5.5, 0.25, -0.0625
9398, 5.75, 0, 0
9399, 5.75, 0.25, 0
9400, 5.625, 0, 0
9401, 5.75, 0.125, 0
9402, 5.625, 0.25, 0
9403, 5.75, 0, -0.0625
9404, 5.75, 0.25, -0.0625
9405, 6, 0, 0
9406, 6, 0.25, 0
9407, 5.875, 0, 0
9408, 6, 0.125, 0
9409, 5.875, 0.25, 0
9410, 6, 0, -0.0625
9411, 6, 0.25, -0.0625
9412, 6.25, 0, 0
9413, 6.25, 0.25, 0
9414, 6.125, 0, 0
9415, 6.25, 0.125, 0
9416, 6.125, 0.25, 0
9417, 6.25, 0, -0.0625
9418, 6.25, 0.25, -0.0625
9419, 6.5, 0, 0
9420, 6.5, 0.25, 0
9421, 6.375, 0, 0
9422, 6.5, 0.125, 0
9423, 6.375, 0.25, 0
9424, 6.5, 0, -0.0625
9425, 6.5, 0.25, -0.0625
9426, 6.75, 0, 0
9427, 6.75, 0.25, 0
9428, 6.625, 0, 0
9429, 6.75, 0.125, 0
9430, 6.625, 0.25, 0
9431, 6.75, 0, -0.0625
9432, 6.75, 0.25, -0.0625
9433, 7, 0, 0
9434, 7, 0.25, 0
9435, 6.875, 0, 0
9436, 7, 0.125, 0
9437, 6.875, 0.25, 0
9438, 7, 0, -0.0625
9439, 7, 0.25, -0.0625
9440, 7.25, 0, 0
9441, 7.25, 0.25, 0
9442, 7.125, 0, 0
9443, 7.25, 0.125, 0
9444, 7.125, 0.25, 0
9445, 7.25, 0, -0.0625
9446, 7.25, 0.25, -0.0625
9447, 7.5, 0, 0
9448, 7.5, 0.25, 0
9449, 7.375, 0, 0
9450, 7.5, 0.125, 0
9451, 7.375, 0.25, 0
9452, 7.5, 0, -0.0625
9453, 7.5, 0.25, -0.0625
9454, 7.75, 0, 0
9455, 7.75, 0.25, 0
9456, 7.625, 0, 0
9457, 7.75, 0.125, 0
9458, 7.625, 0.25, 0
9459, 7.75, 0, -0.0625
9460, 7.75, 0.25, -0.0625
9461, 8, 0, 0
9462, 8, 0.25, 0
9463, 7.875, 0, 0
9464, 8, 0.125, 0
9465, 7.875, 0.25, 0
9466, 8, 0, -0.0625
9467, 8, 0.25, -0.0625
9468, 8.25, 0, 0
9469, 8.25, 0.25, 0
9470, 8.125, 0, 0
9471, 8.25, 0.125, 0
9472, 8.125, 0.25, 0
9473, 8.25, 0, -0.0625
9474, 8.25, 0.25, -0.0625
9475, 8.5, 0, 0
9476, 8.5, 0.25, 0
9477, 8.375, 0, 0
9478, 8.5, 0.125, 0
9479, 8.375, 0.25, 0
9480, 8.5, 0, -0.0625
9481, 8.5, 0.25, -0.0625
9482, 8.75, 0, 0
9483, 8.75, 0.25, 0
9484, 8.625, 0, 0
9485, 8.75, 0.125, 0
9486, 8.625, 0.25, 0
9487, 8.75, 0, -0.0625
9488, 8.75, 0.25, -0.0625
9489, 9, 0, 0
9490, 9, 0.25, 0
9491, 8.875, 0, 0
9492, 9, 0.125, 0
9493, 8.875, 0.25, 0
9494, 9, 0, -0.0625
9495, 9, 0.25, -0.0625
9496, 9.25, 0, 0
9497, 9.25, 0.25, 0
9498, 9.125, 0, 0
9499, 9.25, 0.125, 0
9500, 9.125, 0.25, 0
9501, 9.25, 0, -0.0625
9502, 9.25, 0.25, -0.0625
9503, 9.5, 0, 0
9504, 9.5, 0.25, 0
9505, 9.375, 0, 0
9506, 9.5, 0.125, 0
9507, 9.375, 0.25, 0
9508, 9.5, 0, -0.0625
9509, 9.5, 0.25, -0.0625
9510, 9.75, 0, 0
9511, 9.75, 0.25, 0
9512, 9.625, 0, 0
9513, 9.75, 0.125, 0
9514, 9.625, 0.25, 0
9515, 9.75, 0, -0.0625
9516, 9.75, 0.25, -0.0625
9517, 10, 0, 0
9518, 10, 0.25, 0
9519, 9.875, 0, 0
9520, 10, 0.125, 0
9521, 9.875, 0.25, 0
9522, 10, 0, -0.0625
9523, 10, 0.25, -0.0625
9524, 10.25, 0, 0
9525, 10.25, 0.25, 0
9526, 10.125, 0, 0
9527, 10.25, 0.125, 0
9528, 10.125, 0.25, 0
9529, 10.25, 0, -0.0625
9530, 10.25, 0.25, -0.0625
9531, 10.5, 0, 0
9532, 10.5, 0.25, 0
9533, 10.375, 0, 0
9534, 10.5, 0.125, 0
9535, 10.375, 0.25, 0
9536, 10.5, 0, -0.0625
9537, 10.5, 0.25, -0.0625
9538, 10.75, 0, 0
9539, 10.75, 0.25, 0
9540, 10.625, 0, 0
9541, 10.75, 0.125, 0
9542, 10.625, 0.25, 0
9543, 10.75, 0, -0.0625
9544, 10.75, 0.25, -0.0625
9545, 11, 0, 0
9546, 11, 0.25, 0
9547, 10.875, 0, 0
9548, 11, 0.125, 0
9549, 10.875, 0.25, 0
9550, 11, 0, -0.0625
9551, 11, 0.25, -0.0625
9552, 11.25, 0, 0
9553, 11.25, 0.25, 0
9554, 11.125, 0, 0
9555, 11.25, 0.125, 0
9556, 11.125, 0.25, 0
9557, 11.25, 0, -0.0625
9558, 11.25, 0.25, -0.0625
9559, 11.5, 0, 0
9560, 11.5, 0.25, 0
9561, 11.375, 0, 0
9562, 11.5, 0.125, 0
9563, 11.375, 0.25, 0
9564, 11.5, 0, -0.0625
9565, 11.5, 0.25, -0.0625
9566, 11.75, 0, 0
9567, 11.75, 0.25, 0
9568, 11.625, 0, 0
9569, 11.75, 0.125, 0
9570, 11.625, 0.25, 0
9571, 11.75, 0, -0.0625
9572, 11.75, 0.25, -0.0625
9573, 12, 0, 0
9574, 12, 0.25, 0
9575, 11.875, 0, 0
9576, 12, 0.125, 0
9577, 11.875, 0.25, 0
9578, 12, 0, -0.0625
9579, 12, 0.25, -0.0625
9580, 12.25, 0, 0
9581, 12.25, 0.25, 0
9582, 12.125, 0, 0
9583, 12.25, 0.125, 0
9584, 12.125, 0.25, 0
9585, 12.25, 0, -0.0625
9586, 12.25, 0.25, -0.0625
9587, 12.5, 0, 0
9588, 12.5, 0.25, 0
9589, 12.375, 0, 0
9590, 12.5, 0.125, 0
9591, 12.375, 0.25, 0
9592, 12.5, 0, -0.0625
9593, 12.5, 0.25, -0.0625
9594, 12.75, 0, 0
9595, 12.75, 0.25, 0
9596, 12.625, 0, 0
9597, 12.75, 0.125, 0
9598, 12.625, 0.25, 0
9599, 12.75, 0, -0.0625
9600, 12.75, 0.25, -0.0625
9601, 13, 0, 0
9602, 13, 0.25, 0
9603, 12.875, 0, 0
9604, 13, 0.125, 0
9605, 12.875, 0.25, 0
9606, 13, 0, -0.0625
9607, 13, 0.25, -0.0625
9608, 13.25, 0, 0
9609, 13.25, 0.25, 0
9610, 13.125, 0, 0
9611, 13.25, 0.125, 0
9612, 13.125, 0.25, 0
9613, 13.25, 0, -0.0625
9614, 13.25, 0.25, -0.0625
9615, 13.5, 0, 0
9616, 13.5, 0.25, 0
9617, 13.375, 0, 0
9618, 13.5, 0.125, 0
9619, 13.375, 0.25, 0
9620, 13.5, 0, -0.0625
9621, 13.5, 0.25, -0.0625
9622, 13.75, 0, 0
9623, 13.75, 0.25, 0
9624, 13.625, 0, 0
9625, 13.75, 0.125, 0
9626, 13.625, 0.25, 0
9627, 13.75, 0, -0.0625
9628, 13.75, 0.25, -0.0625
9629, 14, 0, 0
9630, 14, 0.25, 0
9631, 13.875, 0, 0
9632, 14, 0.125, 0
9633, 13.875, 0.25, 0
9634, 14, 0, -0.0625
9635, 14, 0.25, -0.0625
9636, 14.25, 0, 0
9637, 14.25, 0.25, 0
9638, 14.125, 0, 0
9639, 14.25, 0.125, 0
9640, 14.125, 0.25, 0
9641, 14.25, 0, -0.0625
9642, 14.25, 0.25, -0.0625
9643, 14.5, 0, 0
9644, 14.5, 0.25, 0
9645, 14.375, 0, 0
9646, 14.5, 0.125, 0
9647, 14.375, 0.25, 0
9648, 14.5, 0, -0.0625
9649, 14.5, 0.25, -0.0625
9650, 14.75, 0, 0
9651, 14.75, 0.25, 0
9652, 14.625, 0, 0
9653, 14.75, 0.125, 0
9654, 14.625, 0.25, 0
9655, 14.75, 0, -0.0625
9656, 14.75, 0.25, -0.0625
9657, 15, 0, 0
9658, 15, 0.25, 0
9659, 14.875, 0, 0
9660, 15, 0.125, 0
9661, 14.875, 0.25, 0
9662, 15, 0, -0.0625
9663, 15, 0.25, -0.0625
9664, 15.25, 0, 0
9665, 15.25, 0.25, 0
9666, 15.125, 0, 0
9667, 15.25, 0.125, 0
9668, 15.125, 0.25, 0
9669, 15.25, 0, -0.0625
9670, 15.25, 0.25, -0.0625
9671, 15.5, 0, 0
9672, 15.5, 0.25, 0
9673, 15.375, 0, 0
9674, 15.5, 0.125, 0
9675, 15.375, 0.25, 0
9676, 15.5, 0, -0.0625
9677, 15.5, 0.25, -0.0625
9678, 15.75, 0, 0
9679, 15.75, 0.25, 0
9680, 15.625, 0, 0
9681, 15.75, 0.125, 0
9682, 15.625, 0.25, 0
9683, 15.75, 0, -0.0625
9684, 15.75, 0.25, -0.0625
9685, 16, 0, 0
9686, 16, 0.25, 0
9687, 15.875, 0, 0
9688, 16, 0.125, 0
9689, 15.875, 0.25, 0
9690, 16, 0, -0.0625
9691, 16, 0.25, -0.0625
9692, 16.25, 0, 0
9693, 16.25, 0.25, 0
9694, 16.125, 0, 0
9695, 16.25, 0.125, 0
9696, 16.125, 0.25, 0
9697, 16.25, 0, -0.0625
9698, 16.25, 0.25, -0.0625
9699, 16.5, 0, 0
9700, 16.5, 0.25, 0
9701, 16.375, 0, 0
9702, 16.5, 0.125, 0
9703, 16.375, 0.25, 0
9704, 16.5, 0, -0.0625
9705, 16.5, 0.25, -0.0625
9706, 16.75, 0, 0
9707, 16.75, 0.25, 0
9708, 16.625, 0, 0
9709, 16.75, 0.125, 0
9710, 16.625, 0.25, 0
9711, 16.75, 0, -0.0625
9712, 16.75, 0.25, -0.0625
9713, 17, 0, 0
9714, 17, 0.25, 0
9715, 16.875, 0, 0
9716, 17, 0.125, 0
9717, 16.875, 0.25, 0
9718, 17, 0, -0.0625
9719, 17, 0.25, -0.0625
9720, 17.25, 0, 0
9721, 17.25, 0.25, 0
9722, 17.125, 0, 0
9723, 17.25, 0.125, 0
9724, 17.125, 0.25, 0
9725, 17.25, 0, -0.0625
9726, 17.25, 0.25, -0.0625
9727, 17.5, 0, 0
9728, 17.5, 0.25, 0
9729, 17.375, 0, 0
9730, 17.5, 0.125, 0
9731, 17.375, 0.25, 0
9732, 17.5, 0, -0.0625
9733, 17.5, 0.25, -0.0625
9734, 17.75, 0, 0
9735, 17.75, 0.25, 0
9736, 17.625, 0, 0
9737, 17.75, 0.125, 0
9738, 17.625, 0.25, 0
9739, 17.75, 0, -0.0625
9740, 17.75, 0.25, -0.0625
9741, 18, 0, 0
9742, 18, 0.25, 0
9743, 17.875, 0, 0
9744, 18, 0.125, 0
9745, 17.875, 0.25, 0
9746, 18, 0, -0.0625
9747, 18, 0.25, -0.0625
9748, 18.25, 0, 0
9749, 18.25, 0.25, 0
9750, 18.125, 0, 0
9751, 18.25, 0.125, 0
9752, 18.125, 0.25, 0
9753, 18.25, 0, -0.0625
9754, 18.25, 0.25, -0.0625
9755, 18.5, 0, 0
9756, 18.5, 0.25, 0
9757, 18.375, 0, 0
9758, 18.5, 0.125, 0
9759, 18.375, 0.25, 0
9760, 18.5, 0, -0.0625
9761, 18.5, 0.25, -0.0625
9762, 18.75, 0, 0
9763, 18.75, 0.25, 0
9764, 18.625, 0, 0
9765, 18.75, 0.125, 0
9766, 18.625, 0.25, 0
9767, 18.75, 0, -0.0625
9768, 18.75, 0.25, -0.0625
9769, 19, 0, 0
9770, 19, 0.25, 0
9771, 18.875, 0, 0
9772, 19, 0.125, 0
9773, 18.875, 0.25, 0
9774, 19, 0, -0.0625
9775, 19, 0.25, -0.0625
9776, 19.25, 0, 0
9777, 19.25, 0.25, 0
9778, 19.125, 0, 0
9779, 19.25, 0.125, 0
9780, 19.125, 0.25, 0
9781, 19.25, 0, -0.0625
9782, 19.25, 0.25, -0.0625
9783, 19.5, 0, 0
9784, 19.5, 0.25, 0
9785, 19.375, 0, 0
9786, 19.5, 0.125, 0
9787, 19.375, 0.25, 0
9788, 19.5, 0, -0.0625
9789, 19.5, 0.25, -0.0625
9790, 19.75, 0, 0
9791, 19.75, 0.25, 0
9792, 19.625, 0, 0
9793, 19.75, 0.125, 0
9794, 19.625, 0.25, 0
9795, 19.75, 0, -0.0625
9796, 19.75, 0.25, -0.0625
9797, 20, 0, 0
9798, 20, 0.25, 0
9799, 19.875, 0, 0
9800, 20, 0.125, 0
9801, 19.875, 0.25, 0
9802, 20, 0, -0.0625
9803, 20, 0.25, -0.0625
*NODE, NSET=PUNCH
9804, -3.93923101205, -1, 4.69459271067
9805, -3.95075336238, -1, 4.62573786016
9806, -3.96107227497, -1, 4.55669240384
9807, -3.97018460657, -1, 4.48747737362
9808, -3.97808758147, -1, 4.41811385307
9809, -3.98477879237, -1, 4.34862297099
9810, -3.99025620104, -1, 4.27902589498
9811, -3.99451813902, -1, 4.20934382497
9812, -3.99756330808, -1, 4.13959798681
9813, -3.99939078063, -1, 4.06980962575
9814, -4, -1, 4
9815, -3.99939078063, -1, 3.93019037425
9816, -3.99756330808, -1, 3.86040201319
9817, -3.99451813902, -1, 3.79065617503
9818, -3.99025620104, -1, 3.72097410502
9819, -3.98477879237, -1, 3.65137702901
9820, -3.97808758147, -1, 3.58188614693
9821, -3.97018460657, -1, 3.51252262638
9822, -3.96107227497, -1, 3.44330759616
9823, -3.95075336238, -1, 3.37426213984
9824, -3.93923101205, -1, 3.30540728933
9825, -3.92650873379, -1, 3.23676401849
9826, -3.91259040294, -1, 3.16835323673
9827, -3.89748025914, -1, 3.10019578262
9828, -3.8811829051, -1, 3.0323124176
9829, -3.86370330516, -1, 2.96472381959
9830, -3.84504678375, -1, 2.89745057673
9831, -3.82521902385, -1, 2.83051318111
9832, -3.80422606518, -1, 2.7639320225
9833, -3.7820743024, -1, 2.69772738217
9834, -3.75877048314, -1, 2.6319194267
9835, -3.73432170599, -1, 2.56652820182
9836, -3.70873541827, -1, 2.50157362634
9837, -3.68201941381, -1, 2.43707548604
9838, -3.65418183057, -1, 2.3730534277
9839, -3.62523114815, -1, 2.30952695304
9840, -3.5951761852, -1, 2.24651541284
9841, -3.56402609675, -1, 2.18403800104
9842, -3.53179037144, -1, 2.12211374886
9843, -3.49847882856, -1, 2.06076151901
9844, -3.46410161514, -1, 2
9845, -3.42866920281, -1, 1.93984770036
9846, -3.39219238463, -1, 1.88032294307
9847, -3.35468227178, -1, 1.82144385994
9848, -3.31615029022, -1, 1.76322838612
9849, -3.27660817716, -1, 1.7056942546
9850, -3.2360679775, -1, 1.64885899083
9851, -3.19454204019, -1, 1.59273990739
9852, -3.15204301443, -1, 1.5373540987
9853, -3.10858384583, -1, 1.4827184358
9854, -3.06417777248, -1, 1.42884956125
9855, -3.01883832089, -1, 1.37576388404
9856, -2.97257930191, -1, 1.32347757456
9857, -2.92541480648, -1, 1.27200655975
9858, -2.87735920135, -1, 1.22136651816
9859, -2.82842712475, -1, 1.17157287525
9860, -2.77863348184, -1, 1.12264079865
9861, -2.72799344025, -1, 1.07458519352
9862, -2.67652242544, -1, 1.02742069809
9863, -2.62423611596, -1, 0.981161679109
9864, -2.57115043875, -1, 0.935822227524
9865, -2.5172815642, -1, 0.891416154172
9866, -2.4626459013, -1, 0.847956985573
9867, -2.40726009261, -1, 0.805457959811
9868, -2.35114100917, -1, 0.7639320225
9869, -2.2943057454, -1, 0.723391822844
9870, -2.23677161388, -1, 0.68384970978
9871, -2.17855614006, -1, 0.645317728218
9872, -2.11967705693, -1, 0.607807615374
9873, -2.06015229964, -1, 0.571330797192
9874, -2, -1, 0.535898384862
9875, -1.93923848099, -1, 0.501521171442
9876, -1.87788625114, -1, 0.468209628564
9877, -1.81596199896, -1, 0.435973903247
9878, -1.75348458716, -1, 0.404823814803
9879, -1.69047304696, -1, 0.374768851853
9880, -1.6269465723, -1, 0.34581816943
9881, -1.56292451396, -1, 0.31798058619
9882, -1.49842637366, -1, 0.291264581733
9883, -1.43347179818, -1, 0.265678294011
9884, -1.3680805733, -1, 0.241229516856
9885, -1.30227261783, -1, 0.217925697603
9886, -1.2360679775, -1, 0.195773934819
9887, -1.16948681889, -1, 0.174780976148
9888, -1.10254942327, -1, 0.154953216247
9889, -1.03527618041, -1, 0.136296694844
9890, -0.967687582399, -1, 0.118817094896
9891, -0.899804217375, -1, 0.102519740859
9892, -0.831646763271, -1, 0.0874095970648
9893, -0.763235981506, -1, 0.0734912662093
9894, -0.694592710668, -1, 0.0607689879512
9895, -0.625737860161, -1, 0.0492466376194
9896, -0.55669240384, -1, 0.0389277250337
9897, -0.487477373621, -1, 0.0298153934347
9898, -0.418113853071, -1, 0.0219124185269
9899, -0.348622970991, -1, 0.015221207633
9900, -0.279025894977, -1, 0.0097437989607
9901, -0.209343824972, -1, 0.0054818609817
9902, -0.13959798681, -1, 0.00243669192362
9903, -0.0698096257491, -1, 0.000609219374435
9904, 0, -1, 0
9905, 0.0698096257491, -1, 0.000609219374435
9906, 0.13959798681, -1, 0.00243669192362
9907, 0.209343824972, -1, 0.0054818609817
9908, 0.279025894977, -1, 0.0097437989607
9909, 0.348622970991, -1, 0.015221207633
9910, 0.418113853071, -1, 0.0219124185269
9911, 0.487477373621, -1, 0.0298153934347
9912, 0.55669240384, -1, 0.0389277250337
9913, 0.625737860161, -1, 0.0492466376194
9914, 0.694592710668, -1, 0.0607689879512
9915, 0.763235981506, -1, 0.0734912662093
9916, 0.831646763271, -1, 0.0874095970648
9917, 0.899804217375, -1, 0.102519740859
9918, 0.967687582399, -1, 0.118817094896
9919, 1.03527618041, -1, 0.136296694844
9920, 1.10254942327, -1, 0.154953216247
9921, 1.16948681889, -1, 0.174780976148
9922, 1.2360679775, -1, 0.195773934819
9923, 1.30227261783, -1, 0.217925697603
9924, 1.3680805733, -1, 0.241229516856
9925, 1.43347179818, -1, 0.265678294011
9926, 1.49842637366, -1, 0.291264581733
9927, 1.56292451396, -1, 0.31798058619
9928, 1.6269465723, -1, 0.34581816943
9929, 1.69047304696, -1, 0.374768851853
9930, 1.75348458716, -1, 0.404823814803
9931, 1.81596199896, -1, 0.435973903247
9932, 1.87788625114, -1, 0.468209628564
9933, 1.93923848099, -1, 0.501521171442
9934, 2, -1, 0.535898384862
9935, 2.06015229964, -1, 0.571330797192
9936, 2.11967705693, -1, 0.607807615374
9937, 2.17855614006, -1, 0.645317728218
9938, 2.23677161388, -1, 0.68384970978
9939, 2.2943057454, -1, 0.723391822844
9940, 2.35114100917, -1, 0.7639320225
9941, 2.40726009261, -1, 0.805457959811
9942, 2.4626459013, -1, 0.847956985573
9943, 2.5172815642, -1, 0.891416154172
9944, 2.57115043875, -1, 0.935822227524
9945, 2.62423611596, -1, 0.981161679109
9946, 2.67652242544, -1, 1.02742069809
9947, 2.72799344025, -1, 1.07458519352
9948, 2.77863348184, -1, 1.12264079865
9949, 2.82842712475, -1, 1.17157287525
9950, 2.87735920135, -1, 1.22136651816
9951, 2.92541480648, -1, 1.27200655975
9952, 2.97257930191, -1, 1.32347757456
9953, 3.01883832089, -1, 1.37576388404
9954, 3.06417777248, -1, 1.42884956125
9955, 3.10858384583, -1, 1.4827184358
9956, 3.15204301443, -1, 1.5373540987
9957, 3.19454204019, -1, 1.59273990739
9958, 3.2360679775, -1, 1.64885899083
9959, 3.27660817716, -1, 1.7056942546
9960, 3.31615029022, -1, 1.76322838612
9961, 3.35468227178, -1, 1.82144385994
9962, 3.39219238463, -1, 1.88032294307
9963, 3.42866920281, -1, 1.93984770036
9964, 3.46410161514, -1, 2
9965, 3.49847882856, -1, 2.06076151901
9966, 3.53179037144, -1, 2.12211374886
9967, 3.56402609675, -1, 2.18403800104
9968, 3.5951761852, -1, 2.24651541284
9969, 3.62523114815, -1, 2.30952695304
9970, 3.65418183057, -1, 2.3730534277
9971, 3.68201941381, -1, 2.43707548604
9972, 3.70873541827, -1, 2.50157362634
9973, 3.73432170599, -1, 2.56652820182
9974, 3.75877048314, -1, 2.6319194267
9975, 3.7820743024, -1, 2.69772738217
9976, 3.80422606518, -1, 2.7639320225
9977, 3.82521902385, -1, 2.83051318111
9978, 3.84504678375, -1, 2.89745057673
9979, 3.86370330516, -1, 2.96472381959
9980, 3.8811829051, -1, 3.0323124176
9981, 3.89748025914, -1, 3.10019578262
9982, 3.91259040294, -1, 3.16835323673
9983, 3.92650873379, -1, 3.23676401849
9984, 3.93923101205, -1, 3.30540728933
9985, 3.95075336238, -1, 3.37426213984
9986, 3.96107227497, -1, 3.44330759616
9987, 3.97018460657, -1, 3.51252262638
9988, 3.97808758147, -1, 3.58188614693
9989, 3.98477879237, -1, 3.65137702901
9990, 3.99025620104, -1, 3.72097410502
9991, 3.99451813902, -1, 3.79065617503
9992, 3.99756330808, -1, 3.86040201319
9993, 3.99939078063, -1, 3.93019037425
9994, 4, -1, 4
9995, 3.99939078063, -1, 4.06980962575
9996, 3.99756330808, -1, 4.13959798681
9997, 3.99451813902, -1, 4.20934382497
9998, 3.99025620104, -1, 4.27902589498
9999, 3.98477879237, -1, 4.34862297099
10000, 3.97808758147, -1, 4.41811385307
10001, 3.97018460657, -1, 4.48747737362
10002, 3.96107227497, -1, 4.55669240384
10003, 3.95075336238, -1, 4.62573786016
10004, 3.93923101205, -1, 4.69459271067
10005, -3.93923101205, 1.25, 4.69459271067
10006, -3.95075336238, 1.25, 4.62573786016
10007, -3.96107227497, 1.25, 4.55669240384
10008, -3.97018460657, 1.25, 4.48747737362
10009, -3.97808758147, 1.25, 4.41811385307
10010, -3.98477879237, 1.25, 4.34862297099
10011, -3.99025620104, 1.25, 4.27902589498
10012, -3.99451813902, 1.25, 4.20934382497
10013, -3.99756330808, 1.25, 4.13959798681
10014, -3.99939078063, 1.25, 4.06980962575
10015, -4, 1.25, 4
10016, -3.99939078063, 1.25, 3.93019037425
10017, -3.99756330808, 1.25, 3.86040201319
10018, -3.99451813902, 1.25, 3.79065617503
10019, -3.99025620104, 1.25, 3.72097410502
10020, -3.98477879237, 1.25, 3.65137702901
10021, -3.97808758147, 1.25, 3.58188614693
10022, -3.97018460657, 1.25, 3.51252262638
10023, -3.96107227497, 1.25, 3.44330759616
10024, -3.95075336238, 1.25, 3.37426213984
10025, -3.93923101205, 1.25, 3.30540728933
10026, -3.92650873379, 1.25, 3.23676401849
10027, -3.91259040294, 1.25, 3.16835323673
10028, -3.89748025914, 1.25, 3.10019578262
10029, -3.8811829051, 1.25, 3.0323124176
10030, -3.86370330516, 1.25, 2.96472381959
10031, -3.84504678375, 1.25, 2.89745057673
10032, -3.82521902385, 1.25, 2.83051318111
10033, -3.80422606518, 1.25, 2.7639320225
10034, -3.7820743024, 1.25, 2.69772738217
10035, -3.75877048314, 1.25, 2.6319194267
10036, -3.73432170599, 1.25, 2.56652820182
10037, -3.70873541827, 1.25, 2.50157362634
10038, -3.68201941381, 1.25, 2.43707548604
10039, -3.65418183057, 1.25, 2.3730534277
10040, -3.62523114815, 1.25, 2.30952695304
10041, -3.5951761852, 1.25, 2.24651541284
10042, -3.56402609675, 1.25, 2.18403800104
10043, -3.53179037144, 1.25, 2.12211374886
10044, -3.49847882856, 1.25, 2.06076151901
10045, -3.46410161514, 1.25, 2
10046, -3.42866920281, 1.25, 1.93984770036
10047, -3.39219238463, 1.25, 1.88032294307
10048, -3.35468227178, 1.25, 1.82144385994
10049, -3.31615029022, 1.25, 1.76322838612
10050, -3.27660817716, 1.25, 1.7056942546
10051, -3.2360679775, 1.25, 1.64885899083
10052, -3.19454204019, 1.25, 1.59273990739
10053, -3.15204301443, 1.25, 1.5373540987
10054, -3.10858384583, 1.25, 1.4827184358
10055, -3.06417777248, 1.25, 1.42884956125
10056, -3.01883832089, 1.25, 1.37576388404
10057, -2.97257930191, 1.25, 1.32347757456
10058, -2.92541480648, 1.25, 1.27200655975
10059, -2.87735920135, 1.25, 1.22136651816
10060, -2.82842712475, 1.25, 1.17157287525
10061, -2.77863348184, 1.25, 1.12264079865
10062, -2.72799344025, 1.25, 1.07458519352
10063, -2.67652242544, 1.25, 1.02742069809
10064, -2.62423611596, 1.25, 0.981161679109
10065, -2.57115043875, 1.25, 0.935822227524
10066, -2.5172815642, 1.25, 0.891416154172
10067, -2.4626459013, 1.25, 0.847956985573
10068, -2.40726009261, 1.25, 0.805457959811
10069, -2.35114100917, 1.25, 0.7639320225
10070, -2.2943057454, 1.25, 0.723391822844
10071, -2.23677161388, 1.25, 0.68384970978
10072, -2.17855614006, 1.25, 0.645317728218
10073, -2.11967705693, 1.25, 0.607807615374
10074, -2.06015229964, 1.25, 0.571330797192
10075, -2, 1.25, 0.535898384862
10076, -1.93923848099, 1.25, 0.501521171442
10077, -1.87788625114, 1.25, 0.468209628564
10078, -1.81596199896, 1.25, 0.435973903247
10079, -1.75348458716, 1.25, 0.404823814803
10080, -1.69047304696, 1.25, 0.374768851853
10081, -1.6269465723, 1.25, 0.34581816943
10082, -1.56292451396, 1.25, 0.31798058619
10083, -1.49842637366, 1.25, 0.291264581733
10084, -1.43347179818, 1.25, 0.265678294011
10085, -1.3680805733, 1.25, 0.241229516856
10086, -1.30227261783, 1.25, 0.217925697603
10087, -1.2360679775, 1.25, 0.195773934819
10088, -1.16948681889, 1.25, 0.174780976148
10089, -1.10254942327, 1.25, 0.154953216247
10090, -1.03527618041, 1.25, 0.136296694844
10091, -0.967687582399, 1.25, 0.118817094896
10092, -0.899804217375, 1.25, 0.102519740859
10093, -0.831646763271, 1.25, 0.0874095970648
10094, -0.763235981506, 1.25, 0.0734912662093
10095, -0.694592710668, 1.25, 0.0607689879512
10096, -0.625737860161, 1.25, 0.0492466376194
10097, -0.55669240384, 1.25, 0.0389277250337
10098, -0.487477373621, 1.25, 0.0298153934347
10099, -0.418113853071, 1.25, 0.0219124185269
10100, -0.348622970991, 1.25, 0.015221207633
10101, -0.279025894977, 1.25, 0.0097437989607
10102, -0.209343824972, 1.25, 0.0054818609817
10103, -0.13959798681, 1.25, 0.00243669192362
10104, -0.0698096257491, 1.25, 0.000609219374435
10105, 0, 1.25, 0
10106, 0.0698096257491, 1.25, 0.000609219374435
10107, 0.13959798681, 1.25, 0.00243669192362
10108, 0.209343824972, 1.25, 0.0054818609817
10109, 0.279025894977, 1.25, 0.0097437989607
10110, 0.348622970991, 1.25, 0.015221207633
10111, 0.418113853071, 1.25, 0.0219124185269
10112, 0.487477373621, 1.25, 0.0298153934347
10113, 0.55669240384, 1.25, 0.0389277250337
10114, 0.625737860161, 1.25, 0.0492466376194
10115, 0.694592710668, 1.25, 0.0607689879512
10116, 0.763235981506, 1.25, 0.0734912662093
10117, 0.831646763271, 1.25, 0.0874095970648
10118, 0.899804217375, 1.25, 0.102519740859
10119, 0.967687582399, 1.25, 0.118817094896
10120, 1.03527618041, 1.25, 0.136296694844
10121, 1.10254942327, 1.25, 0.154953216247
10122, 1.16948681889, 1.25, 0.174780976148
10123, 1.2360679775, 1.25, 0.195773934819
10124, 1.30227261783, 1.25, 0.217925697603
10125, 1.3680805733, 1.25, 0.241229516856
10126, 1.43347179818, 1.25, 0.265678294011
10127, 1.49842637366, 1.25, 0.291264581733
10128, 1.56292451396, 1.25, 0.31798058619
10129, 1.6269465723, 1.25, 0.34581816943
10130, 1.69047304696, 1.25, 0.374768851853
10131, 1.75348458716, 1.25, 0.404823814803
10132, 1.81596199896, 1.25, 0.435973903247
10133, 1.87788625114, 1.25, 0.468209628564
10134, 1.93923848099, 1.25, 0.501521171442
10135, 2, 1.25, 0.535898384862
10136, 2.06015229964, 1.25, 0.571330797192
10137, 2.11967705693, 1.25, 0.607807615374
10138, 2.17855614006, 1.25, 0.645317728218
10139, 2.23677161388, 1.25, 0.68384970978
10140, 2.2943057454, 1.25, 0.723391822844
10141, 2.35114100917, 1.25, 0.7639320225
10142, 2.40726009261, 1.25, 0.805457959811
10143, 2.4626459013, 1.25, 0.847956985573
10144, 2.5172815642, 1.25, 0.891416154172
10145, 2.57115043875, 1.25, 0.935822227524
10146, 2.62423611596, 1.25, 0.981161679109
10147, 2.67652242544, 1.25, 1.02742069809
10148, 2.72799344025, 1.25, 1.07458519352
10149, 2.77863348184, 1.25, 1.12264079865
10150, 2.82842712475, 1.25, 1.17157287525
10151, 2.87735920135, 1.25, 1.22136651816
10152, 2.92541480648, 1.25, 1.27200655975
10153, 2.97257930191, 1.25, 1.32347757456
10154, 3.01883832089, 1.25, 1.37576388404
10155, 3.06417777248, 1.25, 1.42884956125
10156, 3.10858384583, 1.25, 1.4827184358
10157, 3.15204301443, 1.25, 1.5373540987
10158, 3.19454204019, 1.25, 1.59273990739
10159, 3.2360679775, 1.25, 1.64885899083
10160, 3.27660817716, 1.25, 1.7056942546
10161, 3.31615029022, 1.25, 1.76322838612
10162, 3.35468227178, 1.25, 1.82144385994
10163, 3.39219238463, 1.25, 1.88032294307
10164, 3.42866920281, 1.25, 1.93984770036
10165, 3.46410161514, 1.25, 2
10166, 3.49847882856, 1.25, 2.06076151901
10167, 3.53179037144, 1.25, 2.12211374886
10168, 3.56402609675, 1.25, 2.18403800104
10169, 3.5951761852, 1.25, 2.24651541284
10170, 3.62523114815, 1.25, 2.30952695304
10171, 3.65418183057, 1.25, 2.3730534277
10172, 3.68201941381, 1.25, 2.43707548604
10173, 3.70873541827, 1.25, 2.50157362634
10174, 3.73432170599, 1.25, 2.56652820182
10175, 3.75877048314, 1.25, 2.6319194267
10176, 3.7820743024, 1.25, 2.69772738217
10177, 3.80422606518, 1.25, 2.7639320225
10178, 3.82521902385, 1.25, 2.83051318111
10179, 3.84504678375, 1.25, 2.89745057673
10180, 3.86370330516, 1.25, 2.96472381959
10181, 3.8811829051, 1.25, 3.0323124176
10182, 3.89748025914, 1.25, 3.10019578262
10183, 3.91259040294, 1.25, 3.16835323673
10184, 3.92650873379, 1.25, 3.23676401849
10185, 3.93923101205, 1.25, 3.30540728933
10186, 3.95075336238, 1.25, 3.37426213984
10187, 3.96107227497, 1.25, 3.44330759616
10188, 3.97018460657, 1.25, 3.51252262638
10189, 3.97808758147, 1.25, 3.58188614693
10190, 3.98477879237, 1.25, 3.65137702901
10191, 3.99025620104, 1.25, 3.72097410502
10192, 3.99451813902, 1.25, 3.79065617503
10193, 3.99756330808, 1.25, 3.86040201319
10194, 3.99939078063, 1.25, 3.93019037425
10195, 4, 1.25, 4
10196, 3.99939078063, 1.25, 4.06980962575
10197, 3.99756330808, 1.25, 4.13959798681
10198, 3.99451813902, 1.25, 4.20934382497
10199, 3.99025620104, 1.25, 4.27902589498
10200, 3.98477879237, 1.25, 4.34862297099
10201, 3.97808758147, 1.25, 4.41811385307
10202, 3.97018460657, 1.25, 4.48747737362
10203, 3.96107227497, 1.25, 4.55669240384
10204, 3.95075336238, 1.25, 4.62573786016
10205, 3.93923101205, 1.25, 4.69459271067
10206, -3.44682713554, -1, 4.60776862183
10207, -3.45690919208, -1, 4.54752062764
10208, -3.4659382406, -1, 4.48710585336
10209, -3.47391153074, -1, 4.42654270192
10210, -3.48082663379, -1, 4.36584962144
10211, -3.48668144332, -1, 4.30504509962
10212, -3.49147417591, -1, 4.2441476581
10213, -3.49520337164, -1, 4.18317584685
10214, -3.49786789457, -1, 4.12214823846
10215, -3.49946693305, -1, 4.06108342253
10216, -3.5, -1, 4
10217, -3.49946693305, -1, 3.93891657747
10218, -3.49786789457, -1, 3.87785176154
10219, -3.49520337164, -1, 3.81682415315
10220, -3.49147417591, -1, 3.7558523419
10221, -3.48668144332, -1, 3.69495490038
10222, -3.48082663379, -1, 3.63415037856
10223, -3.47391153074, -1, 3.57345729808
10224, -3.4659382406, -1, 3.51289414664
10225, -3.45690919208, -1, 3.45247937236
10226, -3.44682713554, -1, 3.39223137817
10227, -3.43569514207, -1, 3.33216851618
10228, -3.42351660257, -1, 3.27230908214
10229, -3.41029522675, -1, 3.2126713098
10230, -3.39603504197, -1, 3.1532733654
10231, -3.38074039201, -1, 3.09413334214
10232, -3.36441593578, -1, 3.03526925464
10233, -3.34706664587, -1, 2.97669903347
10234, -3.32869780703, -1, 2.91844051969
10235, -3.3093150146, -1, 2.8605114594
10236, -3.28892417275, -1, 2.80292949836
10237, -3.26753149274, -1, 2.74571217659
10238, -3.24514349098, -1, 2.68887692304
10239, -3.22176698708, -1, 2.63244105029
10240, -3.19740910175, -1, 2.57642174923
10241, -3.17207725463, -1, 2.52083608391
10242, -3.14577916205, -1, 2.46570098624
10243, -3.11852283466, -1, 2.41103325091
10244, -3.09031657501, -1, 2.35684953025
10245, -3.06116897499, -1, 2.30316632914
10246, -3.03108891325, -1, 2.25
10247, -3.00008555246, -1, 2.19736673781
10248, -2.96816833655, -1, 2.14528257518
10249, -2.93534698781, -1, 2.09376337745
10250, -2.90163150394, -1, 2.04282483785
10251, -2.86703215501, -1, 1.99248247277
10252, -2.83155948031, -1, 1.94275161698
10253, -2.79522428517, -1, 1.89364741897
10254, -2.75803763762, -1, 1.84518483636
10255, -2.7200108651, -1, 1.79737863133
10256, -2.68115555092, -1, 1.7502433661
10257, -2.64148353078, -1, 1.70379339853
10258, -2.60100688917, -1, 1.65804287774
10259, -2.55973795567, -1, 1.61300573978
10260, -2.51768930119, -1, 1.56869570339
10261, -2.47487373415, -1, 1.52512626585
10262, -2.43130429661, -1, 1.48231069881
10263, -2.38699426022, -1, 1.44026204433
10264, -2.34195712226, -1, 1.39899311083
10265, -2.29620660147, -1, 1.35851646922
10266, -2.2497566339, -1, 1.31884444908
10267, -2.20262136867, -1, 1.2799891349
10268, -2.15481516364, -1, 1.24196236238
10269, -2.10635258103, -1, 1.20477571483
10270, -2.05724838302, -1, 1.16844051969
10271, -2.00751752723, -1, 1.13296784499
10272, -1.95717516215, -1, 1.09836849606
10273, -1.90623662255, -1, 1.06465301219
10274, -1.85471742482, -1, 1.03183166345
10275, -1.80263326219, -1, 0.999914447543
10276, -1.75, -1, 0.968911086754
10277, -1.69683367086, -1, 0.938831025012
10278, -1.64315046975, -1, 0.909683424994
10279, -1.58896674909, -1, 0.881477165341
10280, -1.53429901376, -1, 0.854220837953
10281, -1.47916391609, -1, 0.827922745372
10282, -1.42357825077, -1, 0.802590898251
10283, -1.36755894971, -1, 0.778233012916
10284, -1.31112307696, -1, 0.754856509016
10285, -1.25428782341, -1, 0.73246850726
10286, -1.19707050164, -1, 0.711075827249
10287, -1.1394885406, -1, 0.690684985402
10288, -1.08155948031, -1, 0.671302192967
10289, -1.02330096653, -1, 0.652933354129
10290, -0.964730745359, -1, 0.635584064216
10291, -0.905866657859, -1, 0.619259607988
10292, -0.846726634599, -1, 0.603964958034
10293, -0.787328690204, -1, 0.589704773252
10294, -0.727690917862, -1, 0.576483397432
10295, -0.667831483818, -1, 0.564304857933
10296, -0.607768621834, -1, 0.553172864457
10297, -0.547520627641, -1, 0.543090807917
10298, -0.48710585336, -1, 0.534061759405
10299, -0.426542701918, -1, 0.526088469255
10300, -0.365849621437, -1, 0.519173366211
10301, -0.305045099617, -1, 0.513318556679
10302, -0.244147658104, -1, 0.508525824091
10303, -0.18317584685, -1, 0.504796628359
10304, -0.122148238459, -1, 0.502132105433
10305, -0.0610834225305, -1, 0.500533066953
10306, 0, -1, 0.5
10307, 0.0610834225305, -1, 0.500533066953
10308, 0.122148238459, -1, 0.502132105433
10309, 0.18317584685, -1, 0.504796628359
10310, 0.244147658104, -1, 0.508525824091
10311, 0.305045099617, -1, 0.513318556679
10312, 0.365849621437, -1, 0.519173366211
10313, 0.426542701918, -1, 0.526088469255
10314, 0.48710585336, -1, 0.534061759405
10315, 0.547520627641, -1, 0.543090807917
10316, 0.607768621834, -1, 0.553172864457
10317, 0.667831483818, -1, 0.564304857933
10318, 0.727690917862, -1, 0.576483397432
10319, 0.787328690204, -1, 0.589704773252
10320, 0.846726634599, -1, 0.603964958034
10321, 0.905866657859, -1, 0.619259607988
10322, 0.964730745359, -1, 0.635584064216
10323, 1.02330096653, -1, 0.652933354129
10324, 1.08155948031, -1, 0.671302192967
10325, 1.1394885406, -1, 0.690684985402
10326, 1.19707050164, -1, 0.711075827249
10327, 1.25428782341, -1, 0.73246850726
10328, 1.31112307696, -1, 0.754856509016
10329, 1.36755894971, -1, 0.778233012916
10330, 1.42357825077, -1, 0.802590898251
10331, 1.47916391609, -1, 0.827922745372
10332, 1.53429901376, -1, 0.854220837953
10333, 1.58896674909, -1, 0.881477165341
10334, 1.64315046975, -1, 0.909683424994
10335, 1.69683367086, -1, 0.938831025012
10336, 1.75, -1, 0.968911086754
10337, 1.80263326219, -1, 0.999914447543
10338, 1.85471742482, -1, 1.03183166345
10339, 1.90623662255, -1, 1.06465301219
10340, 1.95717516215, -1, 1.09836849606
10341, 2.00751752723, -1, 1.13296784499
10342, 2.05724838302, -1, 1.16844051969
10343, 2.10635258103, -1, 1.20477571483
10344, 2.15481516364, -1, 1.24196236238
10345, 2.20262136867, -1, 1.2799891349
10346, 2.2497566339, -1, 1.31884444908
10347, 2.29620660147, -1, 1.35851646922
10348, 2.34195712226, -1, 1.39899311083
10349, 2.38699426022, -1, 1.44026204433
10350, 2.43130429661, -1, 1.48231069881
10351, 2.47487373415, -1, 1.52512626585
10352, 2.51768930119, -1, 1.56869570339
10353, 2.55973795567, -1, 1.61300573978
10354, 2.60100688917, -1, 1.65804287774
10355, 2.64148353078, -1, 1.70379339853
10356, 2.68115555092, -1, 1.7502433661
10357, 2.7200108651, -1, 1.79737863133
10358, 2.75803763762, -1, 1.84518483636
10359, 2.79522428517, -1, 1.89364741897
10360, 2.83155948031, -1, 1.94275161698
10361, 2.86703215501, -1, 1.99248247277
10362, 2.90163150394, -1, 2.04282483785
10363, 2.93534698781, -1, 2.09376337745
10364, 2.96816833655, -1, 2.14528257518
10365, 3.00008555246, -1, 2.19736673781
10366, 3.03108891325, -1, 2.25
10367, 3.06116897499, -1, 2.30316632914
10368, 3.09031657501, -1, 2.35684953025
10369, 3.11852283466, -1, 2.41103325091
10370, 3.14577916205, -1, 2.46570098624
10371, 3.17207725463, -1, 2.52083608391
10372, 3.19740910175, -1, 2.57642174923
10373, 3.22176698708, -1, 2.63244105029
10374, 3.24514349098, -1, 2.68887692304
10375, 3.26753149274, -1, 2.74571217659
10376, 3.28892417275, -1, 2.80292949836
10377, 3.3093150146, -1, 2.8605114594
10378, 3.32869780703, -1, 2.91844051969
10379, 3.34706664587, -1, 2.97669903347
10380, 3.36441593578, -1, 3.03526925464
10381, 3.38074039201, -1, 3.09413334214
10382, 3.39603504197, -1, 3.1532733654
10383, 3.41029522675, -1, 3.2126713098
10384, 3.42351660257, -1, 3.27230908214
10385, 3.43569514207, -1, 3.33216851618
10386, 3.44682713554, -1, 3.39223137817
10387, 3.45690919208, -1, 3.45247937236
10388, 3.4659382406, -1, 3.51289414664
10389, 3.47391153074, -1, 3.57345729808
10390, 3.48082663379, -1, 3.63415037856
10391, 3.48668144332, -1, 3.69495490038
10392, 3.49147417591, -1, 3.7558523419
10393, 3.49520337164, -1, 3.81682415315
10394, 3.49786789457, -1, 3.87785176154
10395, 3.49946693305, -1, 3.93891657747
10396, 3.5, -1, 4
10397, 3.49946693305, -1, 4.06108342253
10398, 3.49786789457, -1, 4.12214823846
10399, 3.49520337164, -1, 4.18317584685
10400, 3.49147417591, -1, 4.2441476581
10401, 3.48668144332, -1, 4.30504509962
10402, 3.48082663379, -1, 4.36584962144
10403, 3.47391153074, -1, 4.42654270192
10404, 3.4659382406, -1, 4.48710585336
10405, 3.45690919208, -1, 4.54752062764
10406, 3.44682713554, -1, 4.60776862183
10407, -3.44682713554, 1.25, 4.60776862183
10408, -3.45690919208, 1.25, 4.54752062764
10409, -3.4659382406, 1.25, 4.48710585336
10410, -3.47391153074, 1.25, 4.42654270192
10411, -3.48082663379, 1.25, 4.36584962144
10412, -3.48668144332, 1.25, 4.30504509962
10413, -3.49147417591, 1.25, 4.2441476581
10414, -3.49520337164, 1.25, 4.18317584685
10415, -3.49786789457, 1.25, 4.12214823846
10416, -3.49946693305, 1.25, 4.06108342253
10417, -3.5, 1.25, 4
10418, -3.49946693305, 1.25, 3.93891657747
10419, -3.49786789457, 1.25, 3.87785176154
10420, -3.49520337164, 1.25, 3.81682415315
10421, -3.49147417591, 1.25, 3.7558523419
10422, -3.48668144332, 1.25, 3.69495490038
10423, -3.48082663379, 1.25, 3.63415037856
10424, -3.47391153074, 1.25, 3.57345729808
10425, -3.4659382406, 1.25, 3.51289414664
10426, -3.45690919208, 1.25, 3.45247937236
10427, -3.44682713554, 1.25, 3.39223137817
10428, -3.43569514207, 1.25, 3.33216851618
10429, -3.42351660257, 1.25, 3.27230908214
10430, -3.41029522675, 1.25, 3.2126713098
10431, -3.39603504197, 1.25, 3.1532733654
10432, -3.38074039201, 1.25, 3.09413334214
10433, -3.36441593578, 1.25, 3.03526925464
10434, -3.34706664587, 1.25, 2.97669903347
10435, -3.32869780703, 1.25, 2.91844051969
10436, -3.3093150146, 1.25, 2.8605114594
10437, -3.28892417275, 1.25, 2.80292949836
10438, -3.26753149274, 1.25, 2.74571217659
10439, -3.24514349098, 1.25, 2.68887692304
10440, -3.22176698708, 1.25, 2.63244105029
10441, -3.19740910175, 1.25, 2.57642174923
10442, -3.17207725463, 1.25, 2.52083608391
10443, -3.14577916205, 1.25, 2.46570098624
10444, -3.11852283466, 1.25, 2.41103325091
10445, -3.09031657501, 1.25, 2.35684953025
10446, -3.06116897499, 1.25, 2.30316632914
10447, -3.03108891325, 1.25, 2.25
10448, -3.00008555246, 1.25, 2.19736673781
10449, -2.96816833655, 1.25, 2.14528257518
10450, -2.93534698781, 1.25, 2.09376337745
10451, -2.90163150394, 1.25, 2.04282483785
10452, -2.86703215501, 1.25, 1.99248247277
10453, -2.83155948031, 1.25, 1.94275161698
10454, -2.79522428517, 1.25, 1.89364741897
10455, -2.75803763762, 1.25, 1.84518483636
10456, -2.7200108651, 1.25, 1.79737863133
10457, -2.68115555092, 1.25, 1.7502433661
10458, -2.64148353078, 1.25, 1.70379339853
10459, -2.60100688917, 1.25, 1.65804287774
10460, -2.55973795567, 1.25, 1.61300573978
10461, -2.51768930119, 1.25, 1.56869570339
10462, -2.47487373415, 1.25, 1.52512626585
10463, -2.43130429661, 1.25, 1.48231069881
10464, -2.38699426022, 1.25, 1.44026204433
10465, -2.34195712226, 1.25, 1.39899311083
10466, -2.29620660147, 1.25, 1.35851646922
10467, -2.2497566339, 1.25, 1.31884444908
10468, -2.20262136867, 1.25, 1.2799891349
10469, -2.15481516364, 1.25, 1.24196236238
10470, -2.10635258103, 1.25, 1.20477571483
10471, -2.05724838302, 1.25, 1.16844051969
10472, -2.00751752723, 1.25, 1.13296784499
10473, -1.95717516215, 1.25, 1.09836849606
10474, -1.90623662255, 1.25, 1.06465301219
10475, -1.85471742482, 1.25, 1.03183166345
10476, -1.80263326219, 1.25, 0.999914447543
10477, -1.75, 1.25, 0.968911086754
10478, -1.69683367086, 1.25, 0.938831025012
10479, -1.64315046975, 1.25, 0.909683424994
10480, -1.58896674909, 1.25, 0.881477165341
10481, -1.53429901376, 1.25, 0.854220837953
10482, -1.47916391609, 1.25, 0.827922745372
10483, -1.42357825077, 1.25, 0.802590898251
10484, -1.36755894971, 1.25, 0.778233012916
10485, -1.31112307696, 1.25, 0.754856509016
10486, -1.25428782341, 1.25, 0.73246850726
10487, -1.19707050164, 1.25, 0.711075827249
10488, -1.1394885406, 1.25, 0.690684985402
10489, -1.08155948031, 1.25, 0.671302192967
10490, -1.02330096653, 1.25, 0.652933354129
10491, -0.964730745359, 1.25, 0.635584064216
10492, -0.905866657859, 1.25, 0.619259607988
10493, -0.846726634599, 1.25, 0.603964958034
10494, -0.787328690204, 1.25, 0.589704773252
10495, -0.727690917862, 1.25, 0.576483397432
10496, -0.667831483818, 1.25, 0.564304857933
10497, -0.607768621834, 1.25, 0.553172864457
10498, -0.547520627641, 1.25, 0.543090807917
10499, -0.48710585336, 1.25, 0.534061759405
10500, -0.426542701918, 1.25, 0.526088469255
10501, -0.365849621437, 1.25, 0.519173366211
10502, -0.305045099617, 1.25, 0.513318556679
10503, -0.244147658104, 1.25, 0.508525824091
10504, -0.18317584685, 1.25, 0.504796628359
10505, -0.122148238459, 1.25, 0.502132105433
10506, -0.0610834225305, 1.25, 0.500533066953
10507, 0, 1.25, 0.5
10508, 0.0610834225305, 1.25, 0.500533066953
10509, 0.122148238459, 1.25, 0.502132105433
10510, 0.18317584685, 1.25, 0.504796628359
10511, 0.244147658104, 1.25, 0.508525824091
10512, 0.305045099617, 1.25, 0.513318556679
10513, 0.365849621437, 1.25, 0.519173366211
10514, 0.426542701918, 1.25, 0.526088469255
10515, 0.48710585336, 1.25, 0.534061759405
10516, 0.547520627641, 1.25, 0.543090807917
10517, 0.607768621834, 1.25, 0.553172864457
10518, 0.667831483818, 1.25, 0.564304857933
10519, 0.727690917862, 1.25, 0.576483397432
10520, 0.787328690204, 1.25, 0.589704773252
10521, 0.846726634599, 1.25, 0.603964958034
10522, 0.905866657859, 1.25, 0.619259607988
10523, 0.964730745359, 1.25, 0.635584064216
10524, 1.02330096653, 1.25, 0.652933354129
10525, 1.08155948031, 1.25, 0.671302192967
10526, 1.1394885406, 1.25, 0.690684985402
10527, 1.19707050164, 1.25, 0.711075827249
10528, 1.25428782341, 1.25, 0.73246850726
10529, 1.31112307696, 1.25, 0.754856509016
10530, 1.36755894971, 1.25, 0.778233012916
10531, 1.42357825077, 1.25, 0.802590898251
10532, 1.47916391609, 1.25, 0.827922745372
10533, 1.53429901376, 1.25, 0.854220837953
10534, 1.58896674909, 1.25, 0.881477165341
10535, 1.64315046975, 1.25, 0.909683424994
10536, 1.69683367086, 1.25, 0.938831025012
10537, 1.75, 1.25, 0.968911086754
10538, 1.80263326219, 1.25, 0.999914447543
10539, 1.85471742482, 1.25, 1.03183166345
10540, 1.90623662255, 1.25, 1.06465301219
10541, 1.95717516215, 1.25, 1.09836849606
10542, 2.00751752723, 1.25, 1.13296784499
10543, 2.05724838302, 1.25, 1.16844051969
10544, 2.10635258103, 1.25, 1.20477571483
10545, 2.15481516364, 1.25, 1.24196236238
10546, 2.20262136867, 1.25, 1.2799891349
10547, 2.2497566339, 1.25, 1.31884444908
10548, 2.29620660147, 1.25, 1.35851646922
10549, 2.34195712226, 1.25, 1.39899311083
10550, 2.38699426022, 1.25, 1.44026204433
10551, 2.43130429661, 1.25, 1.48231069881
10552, 2.47487373415, 1.25, 1.52512626585
10553, 2.51768930119, 1.25, 1.56869570339
10554, 2.55973795567, 1.25, 1.61300573978
10555, 2.60100688917, 1.25, 1.65804287774
10556, 2.64148353078, 1.25, 1.70379339853
10557, 2.68115555092, 1.25, 1.7502433661
10558, 2.7200108651, 1.25, 1.79737863133
10559, 2.75803763762, 1.25, 1.84518483636
10560, 2.79522428517, 1.25, 1.89364741897
10561, 2.83155948031, 1.25, 1.94275161698
10562, 2.86703215501, 1.25, 1.99248247277
10563, 2.90163150394, 1.25, 2.04282483785
10564, 2.93534698781, 1.25, 2.09376337745
10565, 2.96816833655, 1.25, 2.14528257518
10566, 3.00008555246, 1.25, 2.19736673781
10567, 3.03108891325, 1.25, 2.25
10568, 3.06116897499, 1.25, 2.30316632914
10569, 3.09031657501, 1.25, 2.35684953025
10570, 3.11852283466, 1.25, 2.41103325091
10571, 3.14577916205, 1.25, 2.46570098624
10572, 3.17207725463, 1.25, 2.52083608391
10573, 3.19740910175, 1.25, 2.57642174923
10574, 3.22176698708, 1.25, 2.63244105029
10575, 3.24514349098, 1.25, 2.68887692304
10576, 3.26753149274, 1.25, 2.74571217659
10577, 3.28892417275, 1.25, 2.80292949836
10578, 3.3093150146, 1.25, 2.8605114594
10579, 3.32869780703, 1.25, 2.91844051969
10580, 3.34706664587, 1.25, 2.97669903347
10581, 3.36441593578, 1.25, 3.03526925464
10582, 3.38074039201, 1.25, 3.09413334214
10583, 3.39603504197, 1.25, 3.1532733654
10584, 3.41029522675, 1.25, 3.2126713098
10585, 3.42351660257, 1.25, 3.27230908214
10586, 3.43569514207, 1.25, 3.33216851618
10587, 3.44682713554, 1.25, 3.39223137817
10588, 3.45690919208, 1.25, 3.45247937236
10589, 3.4659382406, 1.25, 3.51289414664
10590, 3.47391153074, 1.25, 3.57345729808
10591, 3.48082663379, 1.25, 3.63415037856
10592, 3.48668144332, 1.25, 3.69495490038
10593, 3.49147417591, 1.25, 3.7558523419
10594, 3.49520337164, 1.25, 3.81682415315
10595, 3.49786789457, 1.25, 3.87785176154
10596, 3.49946693305, 1.25, 3.93891657747
10597, 3.5, 1.25, 4
10598, 3.49946693305, 1.25, 4.06108342253
10599, 3.49786789457, 1.25, 4.12214823846
10600, 3.49520337164, 1.25, 4.18317584685
10601, 3.49147417591, 1.25, 4.2441476581
10602, 3.48668144332, 1.25, 4.30504509962
10603, 3.48082663379, 1.25, 4.36584962144
10604, 3.47391153074, 1.25, 4.42654270192
10605, 3.4659382406, 1.25, 4.48710585336
10606, 3.45690919208, 1.25, 4.54752062764
10607, 3.44682713554, 1.25, 4.60776862183
*ELEMENT, TYPE=C3D20R, ELSET=SHEET
1, 1, 2, 3, 4, 5, 6, 7, 8, 9, 10, 11, 12, 13, 14, 15,
16, 17, 18, 19, 20
2, 2, 21, 22, 3, 6, 23, 24, 7, 25, 26, 27, 10, 28, 29, 30,
14, 18, 31, 32, 19
3, 21, 33, 34, 22, 23, 35, 36, 24, 37, 38, 39, 26, 40, 41, 42,
29, 31, 43, 44, 32
4, 33, 45, 46, 34, 35, 47, 48, 36, 49, 50, 51, 38, 52, 53, 54,
41, 43, 55, 56, 44
5, 45, 57, 58, 46, 47, 59, 60, 48, 61, 62, 63, 50, 64, 65, 66,
53, 55, 67, 68, 56
6, 57, 69, 70, 58, 59, 71, 72, 60, 73, 74, 75, 62, 76, 77, 78,
65, 67, 79, 80, 68
7, 69, 81, 82, 70, 71, 83, 84, 72, 85, 86, 87, 74, 88, 89, 90,
77, 79, 91, 92, 80
8, 81, 93, 94, 82, 83, 95, 96, 84, 97, 98, 99, 86, 100, 101, 102,
89, 91, 103, 104, 92
9, 93, 105, 106, 94, 95, 107, 108, 96, 109, 110, 111, 98, 112, 113, 114,
101, 103, 115, 116, 104
10, 105, 117, 118, 106, 107, 119, 120, 108, 121, 122, 123, 110, 124, 125, 126,
113, 115, 127, 128, 116
11, 117, 129, 130, 118, 119, 131, 132, 120, 133, 134, 135, 122, 136, 137, 138,
125, 127, 139, 140, 128
12, 129, 141, 142, 130, 131, 143, 144, 132, 145, 146, 147, 134, 148, 149, 150,
137, 139, 151, 152, 140
13, 141, 153, 154, 142, 143, 155, 156, 144, 157, 158, 159, 146, 160, 161, 162,
149, 151, 163, 164, 152
14, 153, 165, 166, 154, 155, 167, 168, 156, 169, 170, 171, 158, 172, 173, 174,
161, 163, 175, 176, 164
15, 165, 177, 178, 166, 167, 179, 180, 168, 181, 182, 183, 170, 184, 185, 186,
173, 175, 187, 188, 176
16, 177, 189, 190, 178, 179, 191, 192, 180, 193, 194, 195, 182, 196, 197, 198,
185, 187, 199, 200, 188
17, 189, 201, 202, 190, 191, 203, 204, 192, 205, 206, 207, 194, 208, 209, 210,
197, 199, 211, 212, 200
18, 201, 213, 214, 202, 203, 215, 216, 204, 217, 218, 219, 206, 220, 221, 222,
209, 211, 223, 224, 212
19, 213, 225, 226, 214, 215, 227, 228, 216, 229, 230, 231, 218, 232, 233, 234,
221, 223, 235, 236, 224
20, 225, 237, 238, 226, 227, 239, 240, 228, 241, 242, 243, 230, 244, 245, 246,
233, 235, 247, 248, 236
21, 237, 249, 250, 238, 239, 251, 252, 240, 253, 254, 255, 242, 256, 257, 258,
245, 247, 259, 260, 248
22, 249, 261, 262, 250, 251, 263, 264, 252, 265, 266, 267, 254, 268, 269, 270,
257, 259, 271, 272, 260
23, 261, 273, 274, 262, 263, 275, 276, 264, 277, 278, 279, 266, 280, 281, 282,
269, 271, 283, 284, 272
24, 273, 285, 286, 274, 275, 287, 288, 276, 289, 290, 291, 278, 292, 293, 294,
281, 283, 295, 296, 284
25, 285, 297, 298, 286, 287, 299, 300, 288, 301, 302, 303, 290, 304, 305, 306,
293, 295, 307, 308, 296
26, 297, 309, 310, 298, 299, 311, 312, 300, 313, 314, 315, 302, 316, 317, 318,
305, 307, 319, 320, 308
27, 309, 321, 322, 310, 311, 323, 324, 312, 325, 326, 327, 314, 328, 329, 330,
317, 319, 331, 332, 320
28, 321, 333, 334, 322, 323, 335, 336, 324, 337, 338, 339, 326, 340, 341, 342,
329, 331, 343, 344, 332
29, 333, 345, 346, 334, 335, 347, 348, 336, 349, 350, 351, 338, 352, 353, 354,
341, 343, 355, 356, 344
30, 345, 357, 358, 346, 347, 359, 360, 348, 361, 362, 363, 350, 364, 365, 366,
353, 355, 367, 368, 356
31, 357, 369, 370, 358, 359, 371, 372, 360, 373, 374, 375, 362, 376, 377, 378,
365, 367, 379, 380, 368
32, 369, 381, 382, 370, 371, 383, 384, 372, 385, 386, 387, 374, 388, 389, 390,
377, 379, 391, 392, 380
33, 381, 393, 394, 382, 383, 395, 396, 384, 397, 398, 399, 386, 400, 401, 402,
389, 391, 403, 404, 392
34, 393, 405, 406, 394, 395, 407, 408, 396, 409, 410, 411, 398, 412, 413, 414,
401, 403, 415, 416, 404
35, 405, 417, 418, 406, 407, 419, 420, 408, 421, 422, 423, 410, 424, 425, 426,
413, 415, 427, 428, 416
36, 417, 429, 430, 418, 419, 431, 432, 420, 433, 434, 435, 422, 436, 437, 438,
425, 427, 439, 440, 428
37, 429, 441, 442, 430, 431, 443, 444, 432, 445, 446, 447, 434, 448, 449, 450,
437, 439, 451, 452, 440
38, 441, 453, 454, 442, 443, 455, 456, 444, 457, 458, 459, 446, 460, 461, 462,
449, 451, 463, 464, 452
39, 453, 465, 466, 454, 455, 467, 468, 456, 469, 470, 471, 458, 472, 473, 474,
461, 463, 475, 476, 464
40, 465, 477, 478, 466, 467, 479, 480, 468, 481, 482, 483, 470, 484, 485, 486,
473, 475, 487, 488, 476
41, 477, 489, 490, 478, 479, 491, 492, 480, 493, 494, 495, 482, 496, 497, 498,
485, 487, 499, 500, 488
42, 489, 501, 502, 490, 491, 503, 504, 492, 505, 506, 507, 494, 508, 509, 510,
497, 499, 511, 512, 500
43, 501, 513, 514, 502, 503, 515, 516, 504, 517, 518, 519, 506, 520, 521, 522,
509, 511, 523, 524, 512
44, 513, 525, 526, 514, 515, 527, 528, 516, 529, 530, 531, 518, 532, 533, 534,
521, 523, 535, 536, 524
45, 525, 537, 538, 526, 527, 539, 540, 528, 541, 542, 543, 530, 544, 545, 546,
533, 535, 547, 548, 536
46, 537, 549, 550, 538, 539, 551, 552, 540, 553, 554, 555, 542, 556, 557, 558,
545, 547, 559, 560, 548
47, 549, 561, 562, 550, 551, 563, 564, 552, 565, 566, 567, 554, 568, 569, 570,
557, 559, 571, 572, 560
48, 561, 573, 574, 562, 563, 575, 576, 564, 577, 578, 579, 566, 580, 581, 582,
569, 571, 583, 584, 572
49, 573, 585, 586, 574, 575, 587, 588, 576, 589, 590, 591, 578, 592, 593, 594,
581, 583, 595, 596, 584
50, 585, 597, 598, 586, 587, 599, 600, 588, 601, 602, 603, 590, 604, 605, 606,
593, 595, 607, 608, 596
51, 597, 609, 610, 598, 599, 611, 612, 600, 613, 614, 615, 602, 616, 617, 618,
605, 607, 619, 620, 608
52, 609, 621, 622, 610, 611, 623, 624, 612, 625, 626, 627, 614, 628, 629, 630,
617, 619, 631, 632, 620
53, 621, 633, 634, 622, 623, 635, 636, 624, 637, 638, 639, 626, 640, 641, 642,
629, 631, 643, 644, 632
54, 633, 645, 646, 634, 635, 647, 648, 636, 649, 650, 651, 638, 652, 653, 654,
641, 643, 655, 656, 644
55, 645, 657, 658, 646, 647, 659, 660, 648, 661, 662, 663, 650, 664, 665, 666,
653, 655, 667, 668, 656
56, 657, 669, 670, 658, 659, 671, 672, 660, 673, 674, 675, 662, 676, 677, 678,
665, 667, 679, 680, 668
57, 669, 681, 682, 670, 671, 683, 684, 672, 685, 686, 687, 674, 688, 689, 690,
677, 679, 691, 692, 680
58, 681, 693, 694, 682, 683, 695, 696, 684, 697, 698, 699, 686, 700, 701, 702,
689, 691, 703, 704, 692
59, 693, 705, 706, 694, 695, 707, 708, 696, 709, 710, 711, 698, 712, 713, 714,
701, 703, 715, 716, 704
60, 705, 717, 718, 706, 707, 719, 720, 708, 721, 722, 723, 710, 724, 725, 726,
713, 715, 727, 728, 716
61, 717, 729, 730, 718, 719, 731, 732, 720, 733, 734, 735, 722, 736, 737, 738,
725, 727, 739, 740, 728
62, 729, 741, 742, 730, 731, 743, 744, 732, 745, 746, 747, 734, 748, 749, 750,
737, 739, 751, 752, 740
63, 741, 753, 754, 742, 743, 755, 756, 744, 757, 758, 759, 746, 760, 761, 762,
749, 751, 763, 764, 752
64, 753, 765, 766, 754, 755, 767, 768, 756, 769, 770, 771, 758, 772, 773, 774,
761, 763, 775, 776, 764
65, 765, 777, 778, 766, 767, 779, 780, 768, 781, 782, 783, 770, 784, 785, 786,
773, 775, 787, 788, 776
66, 777, 789, 790, 778, 779, 791, 792, 780, 793, 794, 795, 782, 796, 797, 798,
785, 787, 799, 800, 788
67, 789, 801, 802, 790, 791, 803, 804, 792, 805, 806, 807, 794, 808, 809, 810,
797, 799, 811, 812, 800
68, 801, 813, 814, 802, 803, 815, 816, 804, 817, 818, 819, 806, 820, 821, 822,
809, 811, 823, 824, 812
69, 813, 825, 826, 814, 815, 827, 828, 816, 829, 830, 831, 818, 832, 833, 834,
821, 823, 835, 836, 824
70, 825, 837, 838, 826, 827, 839, 840, 828, 841, 842, 843, 830, 844, 845, 846,
833, 835, 847, 848, 836
71, 837, 849, 850, 838, 839, 851, 852, 840, 853, 854, 855, 842, 856, 857, 858,
845, 847, 859, 860, 848
72, 849, 861, 862, 850, 851, 863, 864, 852, 865, 866, 867, 854, 868, 869, 870,
857, 859, 871, 872, 860
73, 861, 873, 874, 862, 863, 875, 876, 864, 877, 878, 879, 866, 880, 881, 882,
869, 871, 883, 884, 872
74, 873, 885, 886, 874, 875, 887, 888, 876, 889, 890, 891, 878, 892, 893, 894,
881, 883, 895, 896, 884
75, 885, 897, 898, 886, 887, 899, 900, 888, 901, 902, 903, 890, 904, 905, 906,
893, 895, 907, 908, 896
76, 897, 909, 910, 898, 899, 911, 912, 900, 913, 914, 915, 902, 916, 917, 918,
905, 907, 919, 920, 908
77, 909, 921, 922, 910, 911, 923, 924, 912, 925, 926, 927, 914, 928, 929, 930,
917, 919, 931, 932, 920
78, 921, 933, 934, 922, 923, 935, 936, 924, 937, 938, 939, 926, 940, 941, 942,
929, 931, 943, 944, 932
79, 933, 945, 946, 934, 935, 947, 948, 936, 949, 950, 951, 938, 952, 953, 954,
941, 943, 955, 956, 944
80, 945, 957, 958, 946, 947, 959, 960, 948, 961, 962, 963, 950, 964, 965, 966,
953, 955, 967, 968, 956
81, 957, 969, 970, 958, 959, 971, 972, 960, 973, 974, 975, 962, 976, 977, 978,
965, 967, 979, 980, 968
82, 969, 981, 982, 970, 971, 983, 984, 972, 985, 986, 987, 974, 988, 989, 990,
977, 979, 991, 992, 980
83, 981, 993, 994, 982, 983, 995, 996, 984, 997, 998, 999, 986, 1000, 1001, 1002,
989, 991, 1003, 1004, 992
84, 993, 1005, 1006, 994, 995, 1007, 1008, 996, 1009, 1010, 1011, 998, 1012, 1013, 1014,
1001, 1003, 1015, 1016, 1004
85, 1005, 1017, 1018, 1006, 1007, 1019, 1020, 1008, 1021, 1022, 1023, 1010, 1024, 1025, 1026,
1013, 1015, 1027, 1028, 1016
86, 1017, 1029, 1030, 1018, 1019, 1031, 1032, 1020, 1033, 1034, 1035, 1022, 1036, 1037, 1038,
1025, 1027, 1039, 1040, 1028
87, 1029, 1041, 1042, 1030, 1031, 1043, 1044, 1032, 1045, 1046, 1047, 1034, 1048, 1049, 1050,
1037, 1039, 1051, 1052, 1040
88, 1041, 1053, 1054, 1042, 1043, 1055, 1056, 1044, 1057, 1058, 1059, 1046, 1060, 1061, 1062,
1049, 1051, 1063, 1064, 1052
89, 1053, 1065, 1066, 1054, 1055, 1067, 1068, 1056, 1069, 1070, 1071, 1058, 1072, 1073, 1074,
1061, 1063, 1075, 1076, 1064
90, 1065, 1077, 1078, 1066, 1067, 1079, 1080, 1068, 1081, 1082, 1083, 1070, 1084, 1085, 1086,
1073, 1075, 1087, 1088, 1076
91, 1077, 1089, 1090, 1078, 1079, 1091, 1092, 1080, 1093, 1094, 1095, 1082, 1096, 1097, 1098,
1085, 1087, 1099, 1100, 1088
92, 1089, 1101, 1102, 1090, 1091, 1103, 1104, 1092, 1105, 1106, 1107, 1094, 1108, 1109, 1110,
1097, 1099, 1111, 1112, 1100
93, 1101, 1113, 1114, 1102, 1103, 1115, 1116, 1104, 1117, 1118, 1119, 1106, 1120, 1121, 1122,
1109, 1111, 1123, 1124, 1112
94, 1113, 1125, 1126, 1114, 1115, 1127, 1128, 1116, 1129, 1130, 1131, 1118, 1132, 1133, 1134,
1121, 1123, 1135, 1136, 1124
95, 1125, 1137, 1138, 1126, 1127, 1139, 1140, 1128, 1141, 1142, 1143, 1130, 1144, 1145, 1146,
1133, 1135, 1147, 1148, 1136
96, 1137, 1149, 1150, 1138, 1139, 1151, 1152, 1140, 1153, 1154, 1155, 1142, 1156, 1157, 1158,
1145, 1147, 1159, 1160, 1148
97, 1149, 1161, 1162, 1150, 1151, 1163, 1164, 1152, 1165, 1166, 1167, 1154, 1168, 1169, 1170,
1157, 1159, 1171, 1172, 1160
98, 1161, 1173, 1174, 1162, 1163, 1175, 1176, 1164, 1177, 1178, 1179, 1166, 1180, 1181, 1182,
1169, 1171, 1183, 1184, 1172
99, 1173, 1185, 1186, 1174, 1175, 1187, 1188, 1176, 1189, 1190, 1191, 1178, 1192, 1193, 1194,
1181, 1183, 1195, 1196, 1184
100, 1185, 1197, 1198, 1186, 1187, 1199, 1200, 1188, 1201, 1202, 1203, 1190, 1204, 1205, 1206,
1193, 1195, 1207, 1208, 1196
101, 1197, 1209, 1210, 1198, 1199, 1211, 1212, 1200, 1213, 1214, 1215, 1202, 1216, 1217, 1218,
1205, 1207, 1219, 1220, 1208
102, 1209, 1221, 1222, 1210, 1211, 1223, 1224, 1212, 1225, 1226, 1227, 1214, 1228, 1229, 1230,
1217, 1219, 1231, 1232, 1220
103, 1221, 1233, 1234, 1222, 1223, 1235, 1236, 1224, 1237, 1238, 1239, 1226, 1240, 1241, 1242,
1229, 1231, 1243, 1244, 1232
104, 1233, 1245, 1246, 1234, 1235, 1247, 1248, 1236, 1249, 1250, 1251, 1238, 1252, 1253, 1254,
1241, 1243, 1255, 1256, 1244
105, 1245, 1257, 1258, 1246, 1247, 1259, 1260, 1248, 1261, 1262, 1263, 1250, 1264, 1265, 1266,
1253, 1255, 1267, 1268, 1256
106, 1257, 1269, 1270, 1258, 1259, 1271, 1272, 1260, 1273, 1274, 1275, 1262, 1276, 1277, 1278,
1265, 1267, 1279, 1280, 1268
107, 1269, 1281, 1282, 1270, 1271, 1283, 1284, 1272, 1285, 1286, 1287, 1274, 1288, 1289, 1290,
1277, 1279, 1291, 1292, 1280
108, 1281, 1293, 1294, 1282, 1283, 1295, 1296, 1284, 1297, 1298, 1299, 1286, 1300, 1301, 1302,
1289, 1291, 1303, 1304, 1292
109, 1293, 1305, 1306, 1294, 1295, 1307, 1308, 1296, 1309, 1310, 1311, 1298, 1312, 1313, 1314,
1301, 1303, 1315, 1316, 1304
110, 1305, 1317, 1318, 1306, 1307, 1319, 1320, 1308, 1321, 1322, 1323, 1310, 1324, 1325, 1326,
1313, 1315, 1327, 1328, 1316
111, 1317, 1329, 1330, 1318, 1319, 1331, 1332, 1320, 1333, 1334, 1335, 1322, 1336, 1337, 1338,
1325, 1327, 1339, 1340, 1328
112, 1329, 1341, 1342, 1330, 1331, 1343, 1344, 1332, 1345, 1346, 1347, 1334, 1348, 1349, 1350,
1337, 1339, 1351, 1352, 1340
113, 1341, 1353, 1354, 1342, 1343, 1355, 1356, 1344, 1357, 1358, 1359, 1346, 1360, 1361, 1362,
1349, 1351, 1363, 1364, 1352
114, 1353, 1365, 1366, 1354, 1355, 1367, 1368, 1356, 1369, 1370, 1371, 1358, 1372, 1373, 1374,
1361, 1363, 1375, 1376, 1364
115, 1365, 1377, 1378, 1366, 1367, 1379, 1380, 1368, 1381, 1382, 1383, 1370, 1384, 1385, 1386,
1373, 1375, 1387, 1388, 1376
116, 1377, 1389, 1390, 1378, 1379, 1391, 1392, 1380, 1393, 1394, 1395, 1382, 1396, 1397, 1398,
1385, 1387, 1399, 1400, 1388
117, 1389, 1401, 1402, 1390, 1391, 1403, 1404, 1392, 1405, 1406, 1407, 1394, 1408, 1409, 1410,
1397, 1399, 1411, 1412, 1400
118, 1401, 1413, 1414, 1402, 1403, 1415, 1416, 1404, 1417, 1418, 1419, 1406, 1420, 1421, 1422,
1409, 1411, 1423, 1424, 1412
119, 1413, 1425, 1426, 1414, 1415, 1427, 1428, 1416, 1429, 1430, 1431, 1418, 1432, 1433, 1434,
1421, 1423, 1435, 1436, 1424
120, 1425, 1437, 1438, 1426, 1427, 1439, 1440, 1428, 1441, 1442, 1443, 1430, 1444, 1445, 1446,
1433, 1435, 1447, 1448, 1436
121, 1437, 1449, 1450, 1438, 1439, 1451, 1452, 1440, 1453, 1454, 1455, 1442, 1456, 1457, 1458,
1445, 1447, 1459, 1460, 1448
122, 1449, 1461, 1462, 1450, 1451, 1463, 1464, 1452, 1465, 1466, 1467, 1454, 1468, 1469, 1470,
1457, 1459, 1471, 1472, 1460
123, 1461, 1473, 1474, 1462, 1463, 1475, 1476, 1464, 1477, 1478, 1479, 1466, 1480, 1481, 1482,
1469, 1471, 1483, 1484, 1472
124, 1473, 1485, 1486, 1474, 1475, 1487, 1488, 1476, 1489, 1490, 1491, 1478, 1492, 1493, 1494,
1481, 1483, 1495, 1496, 1484
125, 1485, 1497, 1498, 1486, 1487, 1499, 1500, 1488, 1501, 1502, 1503, 1490, 1504, 1505, 1506,
1493, 1495, 1507, 1508, 1496
126, 1497, 1509, 1510, 1498, 1499, 1511, 1512, 1500, 1513, 1514, 1515, 1502, 1516, 1517, 1518,
1505, 1507, 1519, 1520, 1508
127, 1509, 1521, 1522, 1510, 1511, 1523, 1524, 1512, 1525, 1526, 1527, 1514, 1528, 1529, 1530,
1517, 1519, 1531, 1532, 1520
128, 1521, 1533, 1534, 1522, 1523, 1535, 1536, 1524, 1537, 1538, 1539, 1526, 1540, 1541, 1542,
1529, 1531, 1543, 1544, 1532
129, 1533, 1545, 1546, 1534, 1535, 1547, 1548, 1536, 1549, 1550, 1551, 1538, 1552, 1553, 1554,
1541, 1543, 1555, 1556, 1544
130, 1545, 1557, 1558, 1546, 1547, 1559, 1560, 1548, 1561, 1562, 1563, 1550, 1564, 1565, 1566,
1553, 1555, 1567, 1568, 1556
131, 1557, 1569, 1570, 1558, 1559, 1571, 1572, 1560, 1573, 1574, 1575, 1562, 1576, 1577, 1578,
1565, 1567, 1579, 1580, 1568
132, 1569, 1581, 1582, 1570, 1571, 1583, 1584, 1572, 1585, 1586, 1587, 1574, 1588, 1589, 1590,
1577, 1579, 1591, 1592, 1580
133, 1581, 1593, 1594, 1582, 1583, 1595, 1596, 1584, 1597, 1598, 1599, 1586, 1600, 1601, 1602,
1589, 1591, 1603, 1604, 1592
134, 1593, 1605, 1606, 1594, 1595, 1607, 1608, 1596, 1609, 1610, 1611, 1598, 1612, 1613, 1614,
1601, 1603, 1615, 1616, 1604
135, 1605, 1617, 1618, 1606, 1607, 1619, 1620, 1608, 1621, 1622, 1623, 1610, 1624, 1625, 1626,
1613, 1615, 1627, 1628, 1616
136, 1617, 1629, 1630, 1618, 1619, 1631, 1632, 1620, 1633, 1634, 1635, 1622, 1636, 1637, 1638,
1625, 1627, 1639, 1640, 1628
137, 1629, 1641, 1642, 1630, 1631, 1643, 1644, 1632, 1645, 1646, 1647, 1634, 1648, 1649, 1650,
1637, 1639, 1651, 1652, 1640
138, 1641, 1653, 1654, 1642, 1643, 1655, 1656, 1644, 1657, 1658, 1659, 1646, 1660, 1661, 1662,
1649, 1651, 1663, 1664, 1652
139, 1653, 1665, 1666, 1654, 1655, 1667, 1668, 1656, 1669, 1670, 1671, 1658, 1672, 1673, 1674,
1661, 1663, 1675, 1676, 1664
140, 1665, 1677, 1678, 1666, 1667, 1679, 1680, 1668, 1681, 1682, 1683, 1670, 1684, 1685, 1686,
1673, 1675, 1687, 1688, 1676
141, 1677, 1689, 1690, 1678, 1679, 1691, 1692, 1680, 1693, 1694, 1695, 1682, 1696, 1697, 1698,
1685, 1687, 1699, 1700, 1688
142, 1689, 1701, 1702, 1690, 1691, 1703, 1704, 1692, 1705, 1706, 1707, 1694, 1708, 1709, 1710,
1697, 1699, 1711, 1712, 1700
143, 1701, 1713, 1714, 1702, 1703, 1715, 1716, 1704, 1717, 1718, 1719, 1706, 1720, 1721, 1722,
1709, 1711, 1723, 1724, 1712
144, 1713, 1725, 1726, 1714, 1715, 1727, 1728, 1716, 1729, 1730, 1731, 1718, 1732, 1733, 1734,
1721, 1723, 1735, 1736, 1724
145, 1725, 1737, 1738, 1726, 1727, 1739, 1740, 1728, 1741, 1742, 1743, 1730, 1744, 1745, 1746,
1733, 1735, 1747, 1748, 1736
146, 1737, 1749, 1750, 1738, 1739, 1751, 1752, 1740, 1753, 1754, 1755, 1742, 1756, 1757, 1758,
1745, 1747, 1759, 1760, 1748
147, 1749, 1761, 1762, 1750, 1751, 1763, 1764, 1752, 1765, 1766, 1767, 1754, 1768, 1769, 1770,
1757, 1759, 1771, 1772, 1760
148, 1761, 1773, 1774, 1762, 1763, 1775, 1776, 1764, 1777, 1778, 1779, 1766, 1780, 1781, 1782,
1769, 1771, 1783, 1784, 1772
149, 1773, 1785, 1786, 1774, 1775, 1787, 1788, 1776, 1789, 1790, 1791, 1778, 1792, 1793, 1794,
1781, 1783, 1795, 1796, 1784
150, 1785, 1797, 1798, 1786, 1787, 1799, 1800, 1788, 1801, 1802, 1803, 1790, 1804, 1805, 1806,
1793, 1795, 1807, 1808, 1796
151, 1797, 1809, 1810, 1798, 1799, 1811, 1812, 1800, 1813, 1814, 1815, 1802, 1816, 1817, 1818,
1805, 1807, 1819, 1820, 1808
152, 1809, 1821, 1822, 1810, 1811, 1823, 1824, 1812, 1825, 1826, 1827, 1814, 1828, 1829, 1830,
1817, 1819, 1831, 1832, 1820
153, 1821, 1833, 1834, 1822, 1823, 1835, 1836, 1824, 1837, 1838, 1839, 1826, 1840, 1841, 1842,
1829, 1831, 1843, 1844, 1832
154, 1833, 1845, 1846, 1834, 1835, 1847, 1848, 1836, 1849, 1850, 1851, 1838, 1852, 1853, 1854,
1841, 1843, 1855, 1856, 1844
155, 1845, 1857, 1858, 1846, 1847, 1859, 1860, 1848, 1861, 1862, 1863, 1850, 1864, 1865, 1866,
1853, 1855, 1867, 1868, 1856
156, 1857, 1869, 1870, 1858, 1859, 1871, 1872, 1860, 1873, 1874, 1875, 1862, 1876, 1877, 1878,
1865, 1867, 1879, 1880, 1868
157, 1869, 1881, 1882, 1870, 1871, 1883, 1884, 1872, 1885, 1886, 1887, 1874, 1888, 1889, 1890,
1877, 1879, 1891, 1892, 1880
158, 1881, 1893, 1894, 1882, 1883, 1895, 1896, 1884, 1897, 1898, 1899, 1886, 1900, 1901, 1902,
1889, 1891, 1903, 1904, 1892
159, 1893, 1905, 1906, 1894, 1895, 1907, 1908, 1896, 1909, 1910, 1911, 1898, 1912, 1913, 1914,
1901, 1903, 1915, 1916, 1904
160, 1905, 1917, 1918, 1906, 1907, 1919, 1920, 1908, 1921, 1922, 1923, 1910, 1924, 1925, 1926,
1913, 1915, 1927, 1928, 1916
161, 5, 6, 7, 8, 1929, 1930, 1931, 1932, 13, 14, 15, 16, 1933, 1934, 1935,
1936, 1937, 1938, 1939, 1940
162, 6, 23, 24, 7, 1930, 1941, 1942, 1931, 28, 29, 30, 14, 1943, 1944, 1945,
1934, 1938, 1946, 1947, 1939
163, 23, 35, 36, 24, 1941, 1948, 1949, 1942, 40, 41, 42, 29, 1950, 1951, 1952,
1944, 1946, 1953, 1954, 1947
164, 35, 47, 48, 36, 1948, 1955, 1956, 1949, 52, 53, 54, 41, 1957, 1958, 1959,
1951, 1953, 1960, 1961, 1954
165, 47, 59, 60, 48, 1955, 1962, 1963, 1956, 64, 65, 66, 53, 1964, 1965, 1966,
1958, 1960, 1967, 1968, 1961
166, 59, 71, 72, 60, 1962, 1969, 1970, 1963, 76, 77, 78, 65, 1971, 1972, 1973,
1965, 1967, 1974, 1975, 1968
167, 71, 83, 84, 72, 1969, 1976, 1977, 1970, 88, 89, 90, 77, 1978, 1979, 1980,
1972, 1974, 1981, 1982, 1975
168, 83, 95, 96, 84, 1976, 1983, 1984, 1977, 100, 101, 102, 89, 1985, 1986, 1987,
1979, 1981, 1988, 1989, 1982
169, 95, 107, 108, 96, 1983, 1990, 1991, 1984, 112, 113, 114, 101, 1992, 1993, 1994,
1986, 1988, 1995, 1996, 1989
170, 107, 119, 120, 108, 1990, 1997, 1998, 1991, 124, 125, 126, 113, 1999, 2000, 2001,
1993, 1995, 2002, 2003, 1996
171, 119, 131, 132, 120, 1997, 2004, 2005, 1998, 136, 137, 138, 125, 2006, 2007, 2008,
2000, 2002, 2009, 2010, 2003
172, 131, 143, 144, 132, 2004, 2011, 2012, 2005, 148, 149, 150, 137, 2013, 2014, 2015,
2007, 2009, 2016, 2017, 2010
173, 143, 155, 156, 144, 2011, 2018, 2019, 2012, 160, 161, 162, 149, 2020, 2021, 2022,
2014, 2016, 2023, 2024, 2017
174, 155, 167, 168, 156, 2018, 2025, 2026, 2019, 172, 173, 174, 161, 2027, 2028, 2029,
2021, 2023, 2030, 2031, 2024
175, 167, 179, 180, 168, 2025, 2032, 2033, 2026, 184, 185, 186, 173, 2034, 2035, 2036,
2028, 2030, 2037, 2038, 2031
176, 179, 191, 192, 180, 2032, 2039, 2040, 2033, 196, 197, 198, 185, 2041, 2042, 2043,
2035, 2037, 2044, 2045, 2038
177, 191, 203, 204, 192, 2039, 2046, 2047, 2040, 208, 209, 210, 197, 2048, 2049, 2050,
2042, 2044, 2051, 2052, 2045
178, 203, 215, 216, 204, 2046, 2053, 2054, 2047, 220, 221, 222, 209, 2055, 2056, 2057,
2049, 2051, 2058, 2059, 2052
179, 215, 227, 228, 216, 2053, 2060, 2061, 2054, 232, 233, 234, 221, 2062, 2063, 2064,
2056, 2058, 2065, 2066, 2059
180, 227, 239, 240, 228, 2060, 2067, 2068, 2061, 244, 245, 246, 233, 2069, 2070, 2071,
2063, 2065, 2072, 2073, 2066
181, 239, 251, 252, 240, 2067, 2074, 2075, 2068, 256, 257, 258, 245, 2076, 2077, 2078,
2070, 2072, 2079, 2080, 2073
182, 251, 263, 264, 252, 2074, 2081, 2082, 2075, 268, 269, 270, 257, 2083, 2084, 2085,
2077, 2079, 2086, 2087, 2080
183, 263, 275, 276, 264, 2081, 2088, 2089, 2082, 280, 281, 282, 269, 2090, 2091, 2092,
2084, 2086, 2093, 2094, 2087
184, 275, 287, 288, 276, 2088, 2095, 2096, 2089, 292, 293, 294, 281, 2097, 2098, 2099,
2091, 2093, 2100, 2101, 2094
185, 287, 299, 300, 288, 2095, 2102, 2103, 2096, 304, 305, 306, 293, 2104, 2105, 2106,
2098, 2100, 2107, 2108, 2101
186, 299, 311, 312, 300, 2102, 2109, 2110, 2103, 316, 317, 318, 305, 2111, 2112, 2113,
2105, 2107, 2114, 2115, 2108
187, 311, 323, 324, 312, 2109, 2116, 2117, 2110, 328, 329, 330, 317, 2118, 2119, 2120,
2112, 2114, 2121, 2122, 2115
188, 323, 335, 336, 324, 2116, 2123, 2124, 2117, 340, 341, 342, 329, 2125, 2126, 2127,
2119, 2121, 2128, 2129, 2122
189, 335, 347, 348, 336, 2123, 2130, 2131, 2124, 352, 353, 354, 341, 2132, 2133, 2134,
2126, 2128, 2135, 2136, 2129
190, 347, 359, 360, 348, 2130, 2137, 2138, 2131, 364, 365, 366, 353, 2139, 2140, 2141,
2133, 2135, 2142, 2143, 2136
191, 359, 371, 372, 360, 2137, 2144, 2145, 2138, 376, 377, 378, 365, 2146, 2147, 2148,
2140, 2142, 2149, 2150, 2143
192, 371, 383, 384, 372, 2144, 2151, 2152, 2145, 388, 389, 390, 377, 2153, 2154, 2155,
2147, 2149, 2156, 2157, 2150
193, 383, 395, 396, 384, 2151, 2158, 2159, 2152, 400, 401, 402, 389, 2160, 2161, 2162,
2154, 2156, 2163, 2164, 2157
194, 395, 407, 408, 396, 2158, 2165, 2166, 2159, 412, 413, 414, 401, 2167, 2168, 2169,
2161, 2163, 2170, 2171, 2164
195, 407, 419, 420, 408, 2165, 2172, 2173, 2166, 424, 425, 426, 413, 2174, 2175, 2176,
2168, 2170, 2177, 2178, 2171
196, 419, 431, 432, 420, 2172, 2179, 2180, 2173, 436, 437, 438, 425, 2181, 2182, 2183,
2175, 2177, 2184, 2185, 2178
197, 431, 443, 444, 432, 2179, 2186, 2187, 2180, 448, 449, 450, 437, 2188, 2189, 2190,
2182, 2184, 2191, 2192, 2185
198, 443, 455, 456, 444, 2186, 2193, 2194, 2187, 460, 461, 462, 449, 2195, 2196, 2197,
2189, 2191, 2198, 2199, 2192
199, 455, 467, 468, 456, 2193, 2200, 2201, 2194, 472, 473, 474, 461, 2202, 2203, 2204,
2196, 2198, 2205, 2206, 2199
200, 467, 479, 480, 468, 2200, 2207, 2208, 2201, 484, 485, 486, 473, 2209, 2210, 2211,
2203, 2205, 2212, 2213, 2206
201, 479, 491, 492, 480, 2207, 2214, 2215, 2208, 496, 497, 498, 485, 2216, 2217, 2218,
2210, 2212, 2219, 2220, 2213
202, 491, 503, 504, 492, 2214, 2221, 2222, 2215, 508, 509, 510, 497, 2223, 2224, 2225,
2217, 2219, 2226, 2227, 2220
203, 503, 515, 516, 504, 2221, 2228, 2229, 2222, 520, 521, 522, 509, 2230, 2231, 2232,
2224, 2226, 2233, 2234, 2227
204, 515, 527, 528, 516, 2228, 2235, 2236, 2229, 532, 533, 534, 521, 2237, 2238, 2239,
2231, 2233, 2240, 2241, 2234
205, 527, 539, 540, 528, 2235, 2242, 2243, 2236, 544, 545, 546, 533, 2244, 2245, 2246,
2238, 2240, 2247, 2248, 2241
206, 539, 551, 552, 540, 2242, 2249, 2250, 2243, 556, 557, 558, 545, 2251, 2252, 2253,
2245, 2247, 2254, 2255, 2248
207, 551, 563, 564, 552, 2249, 2256, 2257, 2250, 568, 569, 570, 557, 2258, 2259, 2260,
2252, 2254, 2261, 2262, 2255
208, 563, 575, 576, 564, 2256, 2263, 2264, 2257, 580, 581, 582, 569, 2265, 2266, 2267,
2259, 2261, 2268, 2269, 2262
209, 575, 587, 588, 576, 2263, 2270, 2271, 2264, 592, 593, 594, 581, 2272, 2273, 2274,
2266, 2268, 2275, 2276, 2269
210, 587, 599, 600, 588, 2270, 2277, 2278, 2271, 604, 605, 606, 593, 2279, 2280, 2281,
2273, 2275, 2282, 2283, 2276
211, 599, 611, 612, 600, 2277, 2284, 2285, 2278, 616, 617, 618, 605, 2286, 2287, 2288,
2280, 2282, 2289, 2290, 2283
212, 611, 623, 624, 612, 2284, 2291, 2292, 2285, 628, 629, 630, 617, 2293, 2294, 2295,
2287, 2289, 2296, 2297, 2290
213, 623, 635, 636, 624, 2291, 2298, 2299, 2292, 640, 641, 642, 629, 2300, 2301, 2302,
2294, 2296, 2303, 2304, 2297
214, 635, 647, 648, 636, 2298, 2305, 2306, 2299, 652, 653, 654, 641, 2307, 2308, 2309,
2301, 2303, 2310, 2311, 2304
215, 647, 659, 660, 648, 2305, 2312, 2313, 2306, 664, 665, 666, 653, 2314, 2315, 2316,
2308, 2310, 2317, 2318, 2311
216, 659, 671, 672, 660, 2312, 2319, 2320, 2313, 676, 677, 678, 665, 2321, 2322, 2323,
2315, 2317, 2324, 2325, 2318
217, 671, 683, 684, 672, 2319, 2326, 2327, 2320, 688, 689, 690, 677, 2328, 2329, 2330,
2322, 2324, 2331, 2332, 2325
218, 683, 695, 696, 684, 2326, 2333, 2334, 2327, 700, 701, 702, 689, 2335, 2336, 2337,
2329, 2331, 2338, 2339, 2332
219, 695, 707, 708, 696, 2333, 2340, 2341, 2334, 712, 713, 714, 701, 2342, 2343, 2344,
2336, 2338, 2345, 2346, 2339
220, 707, 719, 720, 708, 2340, 2347, 2348, 2341, 724, 725, 726, 713, 2349, 2350, 2351,
2343, 2345, 2352, 2353, 2346
221, 719, 731, 732, 720, 2347, 2354, 2355, 2348, 736, 737, 738, 725, 2356, 2357, 2358,
2350, 2352, 2359, 2360, 2353
222, 731, 743, 744, 732, 2354, 2361, 2362, 2355, 748, 749, 750, 737, 2363, 2364, 2365,
2357, 2359, 2366, 2367, 2360
223, 743, 755, 756, 744, 2361, 2368, 2369, 2362, 760, 761, 762, 749, 2370, 2371, 2372,
2364, 2366, 2373, 2374, 2367
224, 755, 767, 768, 756, 2368, 2375, 2376, 2369, 772, 773, 774, 761, 2377, 2378, 2379,
2371, 2373, 2380, 2381, 2374
225, 767, 779, 780, 768, 2375, 2382, 2383, 2376, 784, 785, 786, 773, 2384, 2385, 2386,
2378, 2380, 2387, 2388, 2381
226, 779, 791, 792, 780, 2382, 2389, 2390, 2383, 796, 797, 798, 785, 2391, 2392, 2393,
2385, 2387, 2394, 2395, 2388
227, 791, 803, 804, 792, 2389, 2396, 2397, 2390, 808, 809, 810, 797, 2398, 2399, 2400,
2392, 2394, 2401, 2402, 2395
228, 803, 815, 816, 804, 2396, 2403, 2404, 2397, 820, 821, 822, 809, 2405, 2406, 2407,
2399, 2401, 2408, 2409, 2402
229, 815, 827, 828, 816, 2403, 2410, 2411, 2404, 832, 833, 834, 821, 2412, 2413, 2414,
2406, 2408, 2415, 2416, 2409
230, 827, 839, 840, 828, 2410, 2417, 2418, 2411, 844, 845, 846, 833, 2419, 2420, 2421,
2413, 2415, 2422, 2423, 2416
231, 839, 851, 852, 840, 2417, 2424, 2425, 2418, 856, 857, 858, 845, 2426, 2427, 2428,
2420, 2422, 2429, 2430, 2423
232, 851, 863, 864, 852, 2424, 2431, 2432, 2425, 868, 869, 870, 857, 2433, 2434, 2435,
2427, 2429, 2436, 2437, 2430
233, 863, 875, 876, 864, 2431, 2438, 2439, 2432, 880, 881, 882, 869, 2440, 2441, 2442,
2434, 2436, 2443, 2444, 2437
234, 875, 887, 888, 876, 2438, 2445, 2446, 2439, 892, 893, 894, 881, 2447, 2448, 2449,
2441, 2443, 2450, 2451, 2444
235, 887, 899, 900, 888, 2445, 2452, 2453, 2446, 904, 905, 906, 893, 2454, 2455, 2456,
2448, 2450, 2457, 2458, 2451
236, 899, 911, 912, 900, 2452, 2459, 2460, 2453, 916, 917, 918, 905, 2461, 2462, 2463,
2455, 2457, 2464, 2465, 2458
237, 911, 923, 924, 912, 2459, 2466, 2467, 2460, 928, 929, 930, 917, 2468, 2469, 2470,
2462, 2464, 2471, 2472, 2465
238, 923, 935, 936, 924, 2466, 2473, 2474, 2467, 940, 941, 942, 929, 2475, 2476, 2477,
2469, 2471, 2478, 2479, 2472
239, 935, 947, 948, 936, 2473, 2480, 2481, 2474, 952, 953, 954, 941, 2482, 2483, 2484,
2476, 2478, 2485, 2486, 2479
240, 947, 959, 960, 948, 2480, 2487, 2488, 2481, 964, 965, 966, 953, 2489, 2490, 2491,
2483, 2485, 2492, 2493, 2486
241, 959, 971, 972, 960, 2487, 2494, 2495, 2488, 976, 977, 978, 965, 2496, 2497, 2498,
2490, 2492, 2499, 2500, 2493
242, 971, 983, 984, 972, 2494, 2501, 2502, 2495, 988, 989, 990, 977, 2503, 2504, 2505,
2497, 2499, 2506, 2507, 2500
243, 983, 995, 996, 984, 2501, 2508, 2509, 2502, 1000, 1001, 1002, 989, 2510, 2511, 2512,
2504, 2506, 2513, 2514, 2507
244, 995, 1007, 1008, 996, 2508, 2515, 2516, 2509, 1012, 1013, 1014, 1001, 2517, 2518, 2519,
2511, 2513, 2520, 2521, 2514
245, 1007, 1019, 1020, 1008, 2515, 2522, 2523, 2516, 1024, 1025, 1026, 1013, 2524, 2525, 2526,
2518, 2520, 2527, 2528, 2521
246, 1019, 1031, 1032, 1020, 2522, 2529, 2530, 2523, 1036, 1037, 1038, 1025, 2531, 2532, 2533,
2525, 2527, 2534, 2535, 2528
247, 1031, 1043, 1044, 1032, 2529, 2536, 2537, 2530, 1048, 1049, 1050, 1037, 2538, 2539, 2540,
2532, 2534, 2541, 2542, 2535
248, 1043, 1055, 1056, 1044, 2536, 2543, 2544, 2537, 1060, 1061, 1062, 1049, 2545, 2546, 2547,
2539, 2541, 2548, 2549, 2542
249, 1055, 1067, 1068, 1056, 2543, 2550, 2551, 2544, 1072, 1073, 1074, 1061, 2552, 2553, 2554,
2546, 2548, 2555, 2556, 2549
250, 1067, 1079, 1080, 1068, 2550, 2557, 2558, 2551, 1084, 1085, 1086, 1073, 2559, 2560, 2561,
2553, 2555, 2562, 2563, 2556
251, 1079, 1091, 1092, 1080, 2557, 2564, 2565, 2558, 1096, 1097, 1098, 1085, 2566, 2567, 2568,
2560, 2562, 2569, 2570, 2563
252, 1091, 1103, 1104, 1092, 2564, 2571, 2572, 2565, 1108, 1109, 1110, 1097, 2573, 2574, 2575,
2567, 2569, 2576, 2577, 2570
253, 1103, 1115, 1116, 1104, 2571, 2578, 2579, 2572, 1120, 1121, 1122, 1109, 2580, 2581, 2582,
2574, 2576, 2583, 2584, 2577
254, 1115, 1127, 1128, 1116, 2578, 2585, 2586, 2579, 1132, 1133, 1134, 1121, 2587, 2588, 2589,
2581, 2583, 2590, 2591, 2584
255, 1127, 1139, 1140, 1128, 2585, 2592, 2593, 2586, 1144, 1145, 1146, 1133, 2594, 2595, 2596,
2588, 2590, 2597, 2598, 2591
256, 1139, 1151, 1152, 1140, 2592, 2599, 2600, 2593, 1156, 1157, 1158, 1145, 2601, 2602, 2603,
2595, 2597, 2604, 2605, 2598
257, 1151, 1163, 1164, 1152, 2599, 2606, 2607, 2600, 1168, 1169, 1170, 1157, 2608, 2609, 2610,
2602, 2604, 2611, 2612, 2605
258, 1163, 1175, 1176, 1164, 2606, 2613, 2614, 2607, 1180, 1181, 1182, 1169, 2615, 2616, 2617,
2609, 2611, 2618, 2619, 2612
259, 1175, 1187, 1188, 1176, 2613, 2620, 2621, 2614, 1192, 1193, 1194, 1181, 2622, 2623, 2624,
2616, 2618, 2625, 2626, 2619
260, 1187, 1199, 1200, 1188, 2620, 2627, 2628, 2621, 1204, 1205, 1206, 1193, 2629, 2630, 2631,
2623, 2625, 2632, 2633, 2626
261, 1199, 1211, 1212, 1200, 2627, 2634, 2635, 2628, 1216, 1217, 1218, 1205, 2636, 2637, 2638,
2630, 2632, 2639, 2640, 2633
262, 1211, 1223, 1224, 1212, 2634, 2641, 2642, 2635, 1228, 1229, 1230, 1217, 2643, 2644, 2645,
2637, 2639, 2646, 2647, 2640
263, 1223, 1235, 1236, 1224, 2641, 2648, 2649, 2642, 1240, 1241, 1242, 1229, 2650, 2651, 2652,
2644, 2646, 2653, 2654, 2647
264, 1235, 1247, 1248, 1236, 2648, 2655, 2656, 2649, 1252, 1253, 1254, 1241, 2657, 2658, 2659,
2651, 2653, 2660, 2661, 2654
265, 1247, 1259, 1260, 1248, 2655, 2662, 2663, 2656, 1264, 1265, 1266, 1253, 2664, 2665, 2666,
2658, 2660, 2667, 2668, 2661
266, 1259, 1271, 1272, 1260, 2662, 2669, 2670, 2663, 1276, 1277, 1278, 1265, 2671, 2672, 2673,
2665, 2667, 2674, 2675, 2668
267, 1271, 1283, 1284, 1272, 2669, 2676, 2677, 2670, 1288, 1289, 1290, 1277, 2678, 2679, 2680,
2672, 2674, 2681, 2682, 2675
268, 1283, 1295, 1296, 1284, 2676, 2683, 2684, 2677, 1300, 1301, 1302, 1289, 2685, 2686, 2687,
2679, 2681, 2688, 2689, 2682
269, 1295, 1307, 1308, 1296, 2683, 2690, 2691, 2684, 1312, 1313, 1314, 1301, 2692, 2693, 2694,
2686, 2688, 2695, 2696, 2689
270, 1307, 1319, 1320, 1308, 2690, 2697, 2698, 2691, 1324, 1325, 1326, 1313, 2699, 2700, 2701,
2693, 2695, 2702, 2703, 2696
271, 1319, 1331, 1332, 1320, 2697, 2704, 2705, 2698, 1336, 1337, 1338, 1325, 2706, 2707, 2708,
2700, 2702, 2709, 2710, 2703
272, 1331, 1343, 1344, 1332, 2704, 2711, 2712, 2705, 1348, 1349, 1350, 1337, 2713, 2714, 2715,
2707, 2709, 2716, 2717, 2710
273, 1343, 1355, 1356, 1344, 2711, 2718, 2719, 2712, 1360, 1361, 1362, 1349, 2720, 2721, 2722,
2714, 2716, 2723, 2724, 2717
274, 1355, 1367, 1368, 1356, 2718, 2725, 2726, 2719, 1372, 1373, 1374, 1361, 2727, 2728, 2729,
2721, 2723, 2730, 2731, 2724
275, 1367, 1379, 1380, 1368, 2725, 2732, 2733, 2726, 1384, 1385, 1386, 1373, 2734, 2735, 2736,
2728, 2730, 2737, 2738, 2731
276, 1379, 1391, 1392, 1380, 2732, 2739, 2740, 2733, 1396, 1397, 1398, 1385, 2741, 2742, 2743,
2735, 2737, 2744, 2745, 2738
277, 1391, 1403, 1404, 1392, 2739, 2746, 2747, 2740, 1408, 1409, 1410, 1397, 2748, 2749, 2750,
2742, 2744, 2751, 2752, 2745
278, 1403, 1415, 1416, 1404, 2746, 2753, 2754, 2747, 1420, 1421, 1422, 1409, 2755, 2756, 2757,
2749, 2751, 2758, 2759, 2752
279, 1415, 1427, 1428, 1416, 2753, 2760, 2761, 2754, 1432, 1433, 1434, 1421, 2762, 2763, 2764,
2756, 2758, 2765, 2766, 2759
280, 1427, 1439, 1440, 1428, 2760, 2767, 2768, 2761, 1444, 1445, 1446, 1433, 2769, 2770, 2771,
2763, 2765, 2772, 2773, 2766
281, 1439, 1451, 1452, 1440, 2767, 2774, 2775, 2768, 1456, 1457, 1458, 1445, 2776, 2777, 2778,
2770, 2772, 2779, 2780, 2773
282, 1451, 1463, 1464, 1452, 2774, 2781, 2782, 2775, 1468, 1469, 1470, 1457, 2783, 2784, 2785,
2777, 2779, 2786, 2787, 2780
283, 1463, 1475, 1476, 1464, 2781, 2788, 2789, 2782, 1480, 1481, 1482, 1469, 2790, 2791, 2792,
2784, 2786, 2793, 2794, 2787
284, 1475, 1487, 1488, 1476, 2788, 2795, 2796, 2789, 1492, 1493, 1494, 1481, 2797, 2798, 2799,
2791, 2793, 2800, 2801, 2794
285, 1487, 1499, 1500, 1488, 2795, 2802, 2803, 2796, 1504, 1505, 1506, 1493, 2804, 2805, 2806,
2798, 2800, 2807, 2808, 2801
286, 1499, 1511, 1512, 1500, 2802, 2809, 2810, 2803, 1516, 1517, 1518, 1505, 2811, 2812, 2813,
2805, 2807, 2814, 2815, 2808
287, 1511, 1523, 1524, 1512, 2809, 2816, 2817, 2810, 1528, 1529, 1530, 1517, 2818, 2819, 2820,
2812, 2814, 2821, 2822, 2815
288, 1523, 1535, 1536, 1524, 2816, 2823, 2824, 2817, 1540, 1541, 1542, 1529, 2825, 2826, 2827,
2819, 2821, 2828, 2829, 2822
289, 1535, 1547, 1548, 1536, 2823, 2830, 2831, 2824, 1552, 1553, 1554, 1541, 2832, 2833, 2834,
2826, 2828, 2835, 2836, 2829
290, 1547, 1559, 1560, 1548, 2830, 2837, 2838, 2831, 1564, 1565, 1566, 1553, 2839, 2840, 2841,
2833, 2835, 2842, 2843, 2836
291, 1559, 1571, 1572, 1560, 2837, 2844, 2845, 2838, 1576, 1577, 1578, 1565, 2846, 2847, 2848,
2840, 2842, 2849, 2850, 2843
292, 1571, 1583, 1584, 1572, 2844, 2851, 2852, 2845, 1588, 1589, 1590, 1577, 2853, 2854, 2855,
2847, 2849, 2856, 2857, 2850
293, 1583, 1595, 1596, 1584, 2851, 2858, 2859, 2852, 1600, 1601, 1602, 1589, 2860, 2861, 2862,
2854, 2856, 2863, 2864, 2857
294, 1595, 1607, 1608, 1596, 2858, 2865, 2866, 2859, 1612, 1613, 1614, 1601, 2867, 2868, 2869,
2861, 2863, 2870, 2871, 2864
295, 1607, 1619, 1620, 1608, 2865, 2872, 2873, 2866, 1624, 1625, 1626, 1613, 2874, 2875, 2876,
2868, 2870, 2877, 2878, 2871
296, 1619, 1631, 1632, 1620, 2872, 2879, 2880, 2873, 1636, 1637, 1638, 1625, 2881, 2882, 2883,
2875, 2877, 2884, 2885, 2878
297, 1631, 1643, 1644, 1632, 2879, 2886, 2887, 2880, 1648, 1649, 1650, 1637, 2888, 2889, 2890,
2882, 2884, 2891, 2892, 2885
298, 1643, 1655, 1656, 1644, 2886, 2893, 2894, 2887, 1660, 1661, 1662, 1649, 2895, 2896, 2897,
2889, 2891, 2898, 2899, 2892
299, 1655, 1667, 1668, 1656, 2893, 2900, 2901, 2894, 1672, 1673, 1674, 1661, 2902, 2903, 2904,
2896, 2898, 2905, 2906, 2899
300, 1667, 1679, 1680, 1668, 2900, 2907, 2908, 2901, 1684, 1685, 1686, 1673, 2909, 2910, 2911,
2903, 2905, 2912, 2913, 2906
301, 1679, 1691, 1692, 1680, 2907, 2914, 2915, 2908, 1696, 1697, 1698, 1685, 2916, 2917, 2918,
2910, 2912, 2919, 2920, 2913
302, 1691, 1703, 1704, 1692, 2914, 2921, 2922, 2915, 1708, 1709, 1710, 1697, 2923, 2924, 2925,
2917, 2919, 2926, 2927, 2920
303, 1703, 1715, 1716, 1704, 2921, 2928, 2929, 2922, 1720, 1721, 1722, 1709, 2930, 2931, 2932,
2924, 2926, 2933, 2934, 2927
304, 1715, 1727, 1728, 1716, 2928, 2935, 2936, 2929, 1732, 1733, 1734, 1721, 2937, 2938, 2939,
2931, 2933, 2940, 2941, 2934
305, 1727, 1739, 1740, 1728, 2935, 2942, 2943, 2936, 1744, 1745, 1746, 1733, 2944, 2945, 2946,
2938, 2940, 2947, 2948, 2941
306, 1739, 1751, 1752, 1740, 2942, 2949, 2950, 2943, 1756, 1757, 1758, 1745, 2951, 2952, 2953,
2945, 2947, 2954, 2955, 2948
307, 1751, 1763, 1764, 1752, 2949, 2956, 2957, 2950, 1768, 1769, 1770, 1757, 2958, 2959, 2960,
2952, 2954, 2961, 2962, 2955
308, 1763, 1775, 1776, 1764, 2956, 2963, 2964, 2957, 1780, 1781, 1782, 1769, 2965, 2966, 2967,
2959, 2961, 2968, 2969, 2962
309, 1775, 1787, 1788, 1776, 2963, 2970, 2971, 2964, 1792, 1793, 1794, 1781, 2972, 2973, 2974,
2966, 2968, 2975, 2976, 2969
310, 1787, 1799, 1800, 1788, 2970, 2977, 2978, 2971, 1804, 1805, 1806, 1793, 2979, 2980, 2981,
2973, 2975, 2982, 2983, 2976
311, 1799, 1811, 1812, 1800, 2977, 2984, 2985, 2978, 1816, 1817, 1818, 1805, 2986, 2987, 2988,
2980, 2982, 2989, 2990, 2983
312, 1811, 1823, 1824, 1812, 2984, 2991, 2992, 2985, 1828, 1829, 1830, 1817, 2993, 2994, 2995,
2987, 2989, 2996, 2997, 2990
313, 1823, 1835, 1836, 1824, 2991, 2998, 2999, 2992, 1840, 1841, 1842, 1829, 3000, 3001, 3002,
2994, 2996, 3003, 3004, 2997
314, 1835, 1847, 1848, 1836, 2998, 3005, 3006, 2999, 1852, 1853, 1854, 1841, 3007, 3008, 3009,
3001, 3003, 3010, 3011, 3004
315, 1847, 1859, 1860, 1848, 3005, 3012, 3013, 3006, 1864, 1865, 1866, 1853, 3014, 3015, 3016,
3008, 3010, 3017, 3018, 3011
316, 1859, 1871, 1872, 1860, 3012, 3019, 3020, 3013, 1876, 1877, 1878, 1865, 3021, 3022, 3023,
3015, 3017, 3024, 3025, 3018
317, 1871, 1883, 1884, 1872, 3019, 3026, 3027, 3020, 1888, 1889, 1890, 1877, 3028, 3029, 3030,
3022, 3024, 3031, 3032, 3025
318, 1883, 1895, 1896, 1884, 3026, 3033, 3034, 3027, 1900, 1901, 1902, 1889, 3035, 3036, 3037,
3029, 3031, 3038, 3039, 3032
319, 1895, 1907, 1908, 1896, 3033, 3040, 3041, 3034, 1912, 1913, 1914, 1901, 3042, 3043, 3044,
3036, 3038, 3045, 3046, 3039
320, 1907, 1919, 1920, 1908, 3040, 3047, 3048, 3041, 1924, 1925, 1926, 1913, 3049, 3050, 3051,
3043, 3045, 3052, 3053, 3046
321, 1929, 1930, 1931, 1932, 3054, 3055, 3056, 3057, 1933, 1934, 1935, 1936, 3058, 3059, 3060,
3061, 3062, 3063, 3064, 3065
322, 1930, 1941, 1942, 1931, 3055, 3066, 3067, 3056, 1943, 1944, 1945, 1934, 3068, 3069, 3070,
3059, 3063, 3071, 3072, 3064
323, 1941, 1948, 1949, 1942, 3066, 3073, 3074, 3067, 1950, 1951, 1952, 1944, 3075, 3076, 3077,
3069, 3071, 3078, 3079, 3072
324, 1948, 1955, 1956, 1949, 3073, 3080, 3081, 3074, 1957, 1958, 1959, 1951, 3082, 3083, 3084,
3076, 3078, 3085, 3086, 3079
325, 1955, 1962, 1963, 1956, 3080, 3087, 3088, 3081, 1964, 1965, 1966, 1958, 3089, 3090, 3091,
3083, 3085, 3092, 3093, 3086
326, 1962, 1969, 1970, 1963, 3087, 3094, 3095, 3088, 1971, 1972, 1973, 1965, 3096, 3097, 3098,
3090, 3092, 3099, 3100, 3093
327, 1969, 1976, 1977, 1970, 3094, 3101, 3102, 3095, 1978, 1979, 1980, 1972, 3103, 3104, 3105,
3097, 3099, 3106, 3107, 3100
328, 1976, 1983, 1984, 1977, 3101, 3108, 3109, 3102, 1985, 1986, 1987, 1979, 3110, 3111, 3112,
3104, 3106, 3113, 3114, 3107
329, 1983, 1990, 1991, 1984, 3108, 3115, 3116, 3109, 1992, 1993, 1994, 1986, 3117, 3118, 3119,
3111, 3113, 3120, 3121, 3114
330, 1990, 1997, 1998, 1991, 3115, 3122, 3123, 3116, 1999, 2000, 2001, 1993, 3124, 3125, 3126,
3118, 3120, 3127, 3128, 3121
331, 1997, 2004, 2005, 1998, 3122, 3129, 3130, 3123, 2006, 2007, 2008, 2000, 3131, 3132, 3133,
3125, 3127, 3134, 3135, 3128
332, 2004, 2011, 2012, 2005, 3129, 3136, 3137, 3130, 2013, 2014, 2015, 2007, 3138, 3139, 3140,
3132, 3134, 3141, 3142, 3135
333, 2011, 2018, 2019, 2012, 3136, 3143, 3144, 3137, 2020, 2021, 2022, 2014, 3145, 3146, 3147,
3139, 3141, 3148, 3149, 3142
334, 2018, 2025, 2026, 2019, 3143, 3150, 3151, 3144, 2027, 2028, 2029, 2021, 3152, 3153, 3154,
3146, 3148, 3155, 3156, 3149
335, 2025, 2032, 2033, 2026, 3150, 3157, 3158, 3151, 2034, 2035, 2036, 2028, 3159, 3160, 3161,
3153, 3155, 3162, 3163, 3156
336, 2032, 2039, 2040, 2033, 3157, 3164, 3165, 3158, 2041, 2042, 2043, 2035, 3166, 3167, 3168,
3160, 3162, 3169, 3170, 3163
337, 2039, 2046, 2047, 2040, 3164, 3171, 3172, 3165, 2048, 2049, 2050, 2042, 3173, 3174, 3175,
3167, 3169, 3176, 3177, 3170
338, 2046, 2053, 2054, 2047, 3171, 3178, 3179, 3172, 2055, 2056, 2057, 2049, 3180, 3181, 3182,
3174, 3176, 3183, 3184, 3177
339, 2053, 2060, 2061, 2054, 3178, 3185, 3186, 3179, 2062, 2063, 2064, 2056, 3187, 3188, 3189,
3181, 3183, 3190, 3191, 3184
340, 2060, 2067, 2068, 2061, 3185, 3192, 3193, 3186, 2069, 2070, 2071, 2063, 3194, 3195, 3196,
3188, 3190, 3197, 3198, 3191
341, 2067, 2074, 2075, 2068, 3192, 3199, 3200, 3193, 2076, 2077, 2078, 2070, 3201, 3202, 3203,
3195, 3197, 3204, 3205, 3198
342, 2074, 2081, 2082, 2075, 3199, 3206, 3207, 3200, 2083, 2084, 2085, 2077, 3208, 3209, 3210,
3202, 3204, 3211, 3212, 3205
343, 2081, 2088, 2089, 2082, 3206, 3213, 3214, 3207, 2090, 2091, 2092, 2084, 3215, 3216, 3217,
3209, 3211, 3218, 3219, 3212
344, 2088, 2095, 2096, 2089, 3213, 3220, 3221, 3214, 2097, 2098, 2099, 2091, 3222, 3223, 3224,
3216, 3218, 3225, 3226, 3219
345, 2095, 2102, 2103, 2096, 3220, 3227, 3228, 3221, 2104, 2105, 2106, 2098, 3229, 3230, 3231,
3223, 3225, 3232, 3233, 3226
346, 2102, 2109, 2110, 2103, 3227, 3234, 3235, 3228, 2111, 2112, 2113, 2105, 3236, 3237, 3238,
3230, 3232, 3239, 3240, 3233
347, 2109, 2116, 2117, 2110, 3234, 3241, 3242, 3235, 2118, 2119, 2120, 2112, 3243, 3244, 3245,
3237, 3239, 3246, 3247, 3240
348, 2116, 2123, 2124, 2117, 3241, 3248, 3249, 3242, 2125, 2126, 2127, 2119, 3250, 3251, 3252,
3244, 3246, 3253, 3254, 3247
349, 2123, 2130, 2131, 2124, 3248, 3255, 3256, 3249, 2132, 2133, 2134, 2126, 3257, 3258, 3259,
3251, 3253, 3260, 3261, 3254
350, 2130, 2137, 2138, 2131, 3255, 3262, 3263, 3256, 2139, 2140, 2141, 2133, 3264, 3265, 3266,
3258, 3260, 3267, 3268, 3261
351, 2137, 2144, 2145, 2138, 3262, 3269, 3270, 3263, 2146, 2147, 2148, 2140, 3271, 3272, 3273,
3265, 3267, 3274, 3275, 3268
352, 2144, 2151, 2152, 2145, 3269, 3276, 3277, 3270, 2153, 2154, 2155, 2147, 3278, 3279, 3280,
3272, 3274, 3281, 3282, 3275
353, 2151, 2158, 2159, 2152, 3276, 3283, 3284, 3277, 2160, 2161, 2162, 2154, 3285, 3286, 3287,
3279, 3281, 3288, 3289, 3282
354, 2158, 2165, 2166, 2159, 3283, 3290, 3291, 3284, 2167, 2168, 2169, 2161, 3292, 3293, 3294,
3286, 3288, 3295, 3296, 3289
355, 2165, 2172, 2173, 2166, 3290, 3297, 3298, 3291, 2174, 2175, 2176, 2168, 3299, 3300, 3301,
3293, 3295, 3302, 3303, 3296
356, 2172, 2179, 2180, 2173, 3297, 3304, 3305, 3298, 2181, 2182, 2183, 2175, 3306, 3307, 3308,
3300, 3302, 3309, 3310, 3303
357, 2179, 2186, 2187, 2180, 3304, 3311, 3312, 3305, 2188, 2189, 2190, 2182, 3313, 3314, 3315,
3307, 3309, 3316, 3317, 3310
358, 2186, 2193, 2194, 2187, 3311, 3318, 3319, 3312, 2195, 2196, 2197, 2189, 3320, 3321, 3322,
3314, 3316, 3323, 3324, 3317
359, 2193, 2200, 2201, 2194, 3318, 3325, 3326, 3319, 2202, 2203, 2204, 2196, 3327, 3328, 3329,
3321, 3323, 3330, 3331, 3324
360, 2200, 2207, 2208, 2201, 3325, 3332, 3333, 3326, 2209, 2210, 2211, 2203, 3334, 3335, 3336,
3328, 3330, 3337, 3338, 3331
361, 2207, 2214, 2215, 2208, 3332, 3339, 3340, 3333, 2216, 2217, 2218, 2210, 3341, 3342, 3343,
3335, 3337, 3344, 3345, 3338
362, 2214, 2221, 2222, 2215, 3339, 3346, 3347, 3340, 2223, 2224, 2225, 2217, 3348, 3349, 3350,
3342, 3344, 3351, 3352, 3345
363, 2221, 2228, 2229, 2222, 3346, 3353, 3354, 3347, 2230, 2231, 2232, 2224, 3355, 3356, 3357,
3349, 3351, 3358, 3359, 3352
364, 2228, 2235, 2236, 2229, 3353, 3360, 3361, 3354, 2237, 2238, 2239, 2231, 3362, 3363, 3364,
3356, 3358, 3365, 3366, 3359
365, 2235, 2242, 2243, 2236, 3360, 3367, 3368, 3361, 2244, 2245, 2246, 2238, 3369, 3370, 3371,
3363, 3365, 3372, 3373, 3366
366, 2242, 2249, 2250, 2243, 3367, 3374, 3375, 3368, 2251, 2252, 2253, 2245, 3376, 3377, 3378,
3370, 3372, 3379, 3380, 3373
367, 2249, 2256, 2257, 2250, 3374, 3381, 3382, 3375, 2258, 2259, 2260, 2252, 3383, 3384, 3385,
3377, 3379, 3386, 3387, 3380
368, 2256, 2263, 2264, 2257, 3381, 3388, 3389, 3382, 2265, 2266, 2267, 2259, 3390, 3391, 3392,
3384, 3386, 3393, 3394, 3387
369, 2263, 2270, 2271, 2264, 3388, 3395, 3396, 3389, 2272, 2273, 2274, 2266, 3397, 3398, 3399,
3391, 3393, 3400, 3401, 3394
370, 2270, 2277, 2278, 2271, 3395, 3402, 3403, 3396, 2279, 2280, 2281, 2273, 3404, 3405, 3406,
3398, 3400, 3407, 3408, 3401
371, 2277, 2284, 2285, 2278, 3402, 3409, 3410, 3403, 2286, 2287, 2288, 2280, 3411, 3412, 3413,
3405, 3407, 3414, 3415, 3408
372, 2284, 2291, 2292, 2285, 3409, 3416, 3417, 3410, 2293, 2294, 2295, 2287, 3418, 3419, 3420,
3412, 3414, 3421, 3422, 3415
373, 2291, 2298, 2299, 2292, 3416, 3423, 3424, 3417, 2300, 2301, 2302, 2294, 3425, 3426, 3427,
3419, 3421, 3428, 3429, 3422
374, 2298, 2305, 2306, 2299, 3423, 3430, 3431, 3424, 2307, 2308, 2309, 2301, 3432, 3433, 3434,
3426, 3428, 3435, 3436, 3429
375, 2305, 2312, 2313, 2306, 3430, 3437, 3438, 3431, 2314, 2315, 2316, 2308, 3439, 3440, 3441,
3433, 3435, 3442, 3443, 3436
376, 2312, 2319, 2320, 2313, 3437, 3444, 3445, 3438, 2321, 2322, 2323, 2315, 3446, 3447, 3448,
3440, 3442, 3449, 3450, 3443
377, 2319, 2326, 2327, 2320, 3444, 3451, 3452, 3445, 2328, 2329, 2330, 2322, 3453, 3454, 3455,
3447, 3449, 3456, 3457, 3450
378, 2326, 2333, 2334, 2327, 3451, 3458, 3459, 3452, 2335, 2336, 2337, 2329, 3460, 3461, 3462,
3454, 3456, 3463, 3464, 3457
379, 2333, 2340, 2341, 2334, 3458, 3465, 3466, 3459, 2342, 2343, 2344, 2336, 3467, 3468, 3469,
3461, 3463, 3470, 3471, 3464
380, 2340, 2347, 2348, 2341, 3465, 3472, 3473, 3466, 2349, 2350, 2351, 2343, 3474, 3475, 3476,
3468, 3470, 3477, 3478, 3471
381, 2347, 2354, 2355, 2348, 3472, 3479, 3480, 3473, 2356, 2357, 2358, 2350, 3481, 3482, 3483,
3475, 3477, 3484, 3485, 3478
382, 2354, 2361, 2362, 2355, 3479, 3486, 3487, 3480, 2363, 2364, 2365, 2357, 3488, 3489, 3490,
3482, 3484, 3491, 3492, 3485
383, 2361, 2368, 2369, 2362, 3486, 3493, 3494, 3487, 2370, 2371, 2372, 2364, 3495, 3496, 3497,
3489, 3491, 3498, 3499, 3492
384, 2368, 2375, 2376, 2369, 3493, 3500, 3501, 3494, 2377, 2378, 2379, 2371, 3502, 3503, 3504,
3496, 3498, 3505, 3506, 3499
385, 2375, 2382, 2383, 2376, 3500, 3507, 3508, 3501, 2384, 2385, 2386, 2378, 3509, 3510, 3511,
3503, 3505, 3512, 3513, 3506
386, 2382, 2389, 2390, 2383, 3507, 3514, 3515, 3508, 2391, 2392, 2393, 2385, 3516, 3517, 3518,
3510, 3512, 3519, 3520, 3513
387, 2389, 2396, 2397, 2390, 3514, 3521, 3522, 3515, 2398, 2399, 2400, 2392, 3523, 3524, 3525,
3517, 3519, 3526, 3527, 3520
388, 2396, 2403, 2404, 2397, 3521, 3528, 3529, 3522, 2405, 2406, 2407, 2399, 3530, 3531, 3532,
3524, 3526, 3533, 3534, 3527
389, 2403, 2410, 2411, 2404, 3528, 3535, 3536, 3529, 2412, 2413, 2414, 2406, 3537, 3538, 3539,
3531, 3533, 3540, 3541, 3534
390, 2410, 2417, 2418, 2411, 3535, 3542, 3543, 3536, 2419, 2420, 2421, 2413, 3544, 3545, 3546,
3538, 3540, 3547, 3548, 3541
391, 2417, 2424, 2425, 2418, 3542, 3549, 3550, 3543, 2426, 2427, 2428, 2420, 3551, 3552, 3553,
3545, 3547, 3554, 3555, 3548
392, 2424, 2431, 2432, 2425, 3549, 3556, 3557, 3550, 2433, 2434, 2435, 2427, 3558, 3559, 3560,
3552, 3554, 3561, 3562, 3555
393, 2431, 2438, 2439, 2432, 3556, 3563, 3564, 3557, 2440, 2441, 2442, 2434, 3565, 3566, 3567,
3559, 3561, 3568, 3569, 3562
394, 2438, 2445, 2446, 2439, 3563, 3570, 3571, 3564, 2447, 2448, 2449, 2441, 3572, 3573, 3574,
3566, 3568, 3575, 3576, 3569
395, 2445, 2452, 2453, 2446, 3570, 3577, 3578, 3571, 2454, 2455, 2456, 2448, 3579, 3580, 3581,
3573, 3575, 3582, 3583, 3576
396, 2452, 2459, 2460, 2453, 3577, 3584, 3585, 3578, 2461, 2462, 2463, 2455, 3586, 3587, 3588,
3580, 3582, 3589, 3590, 3583
397, 2459, 2466, 2467, 2460, 3584, 3591, 3592, 3585, 2468, 2469, 2470, 2462, 3593, 3594, 3595,
3587, 3589, 3596, 3597, 3590
398, 2466, 2473, 2474, 2467, 3591, 3598, 3599, 3592, 2475, 2476, 2477, 2469, 3600, 3601, 3602,
3594, 3596, 3603, 3604, 3597
399, 2473, 2480, 2481, 2474, 3598, 3605, 3606, 3599, 2482, 2483, 2484, 2476, 3607, 3608, 3609,
3601, 3603, 3610, 3611, 3604
400, 2480, 2487, 2488, 2481, 3605, 3612, 3613, 3606, 2489, 2490, 2491, 2483, 3614, 3615, 3616,
3608, 3610, 3617, 3618, 3611
401, 2487, 2494, 2495, 2488, 3612, 3619, 3620, 3613, 2496, 2497, 2498, 2490, 3621, 3622, 3623,
3615, 3617, 3624, 3625, 3618
402, 2494, 2501, 2502, 2495, 3619, 3626, 3627, 3620, 2503, 2504, 2505, 2497, 3628, 3629, 3630,
3622, 3624, 3631, 3632, 3625
403, 2501, 2508, 2509, 2502, 3626, 3633, 3634, 3627, 2510, 2511, 2512, 2504, 3635, 3636, 3637,
3629, 3631, 3638, 3639, 3632
404, 2508, 2515, 2516, 2509, 3633, 3640, 3641, 3634, 2517, 2518, 2519, 2511, 3642, 3643, 3644,
3636, 3638, 3645, 3646, 3639
405, 2515, 2522, 2523, 2516, 3640, 3647, 3648, 3641, 2524, 2525, 2526, 2518, 3649, 3650, 3651,
3643, 3645, 3652, 3653, 3646
406, 2522, 2529, 2530, 2523, 3647, 3654, 3655, 3648, 2531, 2532, 2533, 2525, 3656, 3657, 3658,
3650, 3652, 3659, 3660, 3653
407, 2529, 2536, 2537, 2530, 3654, 3661, 3662, 3655, 2538, 2539, 2540, 2532, 3663, 3664, 3665,
3657, 3659, 3666, 3667, 3660
408, 2536, 2543, 2544, 2537, 3661, 3668, 3669, 3662, 2545, 2546, 2547, 2539, 3670, 3671, 3672,
3664, 3666, 3673, 3674, 3667
409, 2543, 2550, 2551, 2544, 3668, 3675, 3676, 3669, 2552, 2553, 2554, 2546, 3677, 3678, 3679,
3671, 3673, 3680, 3681, 3674
410, 2550, 2557, 2558, 2551, 3675, 3682, 3683, 3676, 2559, 2560, 2561, 2553, 3684, 3685, 3686,
3678, 3680, 3687, 3688, 3681
411, 2557, 2564, 2565, 2558, 3682, 3689, 3690, 3683, 2566, 2567, 2568, 2560, 3691, 3692, 3693,
3685, 3687, 3694, 3695, 3688
412, 2564, 2571, 2572, 2565, 3689, 3696, 3697, 3690, 2573, 2574, 2575, 2567, 3698, 3699, 3700,
3692, 3694, 3701, 3702, 3695
413, 2571, 2578, 2579, 2572, 3696, 3703, 3704, 3697, 2580, 2581, 2582, 2574, 3705, 3706, 3707,
3699, 3701, 3708, 3709, 3702
414, 2578, 2585, 2586, 2579, 3703, 3710, 3711, 3704, 2587, 2588, 2589, 2581, 3712, 3713, 3714,
3706, 3708, 3715, 3716, 3709
415, 2585, 2592, 2593, 2586, 3710, 3717, 3718, 3711, 2594, 2595, 2596, 2588, 3719, 3720, 3721,
3713, 3715, 3722, 3723, 3716
416, 2592, 2599, 2600, 2593, 3717, 3724, 3725, 3718, 2601, 2602, 2603, 2595, 3726, 3727, 3728,
3720, 3722, 3729, 3730, 3723
417, 2599, 2606, 2607, 2600, 3724, 3731, 3732, 3725, 2608, 2609, 2610, 2602, 3733, 3734, 3735,
3727, 3729, 3736, 3737, 3730
418, 2606, 2613, 2614, 2607, 3731, 3738, 3739, 3732, 2615, 2616, 2617, 2609, 3740, 3741, 3742,
3734, 3736, 3743, 3744, 3737
419, 2613, 2620, 2621, 2614, 3738, 3745, 3746, 3739, 2622, 2623, 2624, 2616, 3747, 3748, 3749,
3741, 3743, 3750, 3751, 3744
420, 2620, 2627, 2628, 2621, 3745, 3752, 3753, 3746, 2629, 2630, 2631, 2623, 3754, 3755, 3756,
3748, 3750, 3757, 3758, 3751
421, 2627, 2634, 2635, 2628, 3752, 3759, 3760, 3753, 2636, 2637, 2638, 2630, 3761, 3762, 3763,
3755, 3757, 3764, 3765, 3758
422, 2634, 2641, 2642, 2635, 3759, 3766, 3767, 3760, 2643, 2644, 2645, 2637, 3768, 3769, 3770,
3762, 3764, 3771, 3772, 3765
423, 2641, 2648, 2649, 2642, 3766, 3773, 3774, 3767, 2650, 2651, 2652, 2644, 3775, 3776, 3777,
3769, 3771, 3778, 3779, 3772
424, 2648, 2655, 2656, 2649, 3773, 3780, 3781, 3774, 2657, 2658, 2659, 2651, 3782, 3783, 3784,
3776, 3778, 3785, 3786, 3779
425, 2655, 2662, 2663, 2656, 3780, 3787, 3788, 3781, 2664, 2665, 2666, 2658, 3789, 3790, 3791,
3783, 3785, 3792, 3793, 3786
426, 2662, 2669, 2670, 2663, 3787, 3794, 3795, 3788, 2671, 2672, 2673, 2665, 3796, 3797, 3798,
3790, 3792, 3799, 3800, 3793
427, 2669, 2676, 2677, 2670, 3794, 3801, 3802, 3795, 2678, 2679, 2680, 2672, 3803, 3804, 3805,
3797, 3799, 3806, 3807, 3800
428, 2676, 2683, 2684, 2677, 3801, 3808, 3809, 3802, 2685, 2686, 2687, 2679, 3810, 3811, 3812,
3804, 3806, 3813, 3814, 3807
429, 2683, 2690, 2691, 2684, 3808, 3815, 3816, 3809, 2692, 2693, 2694, 2686, 3817, 3818, 3819,
3811, 3813, 3820, 3821, 3814
430, 2690, 2697, 2698, 2691, 3815, 3822, 3823, 3816, 2699, 2700, 2701, 2693, 3824, 3825, 3826,
3818, 3820, 3827, 3828, 3821
431, 2697, 2704, 2705, 2698, 3822, 3829, 3830, 3823, 2706, 2707, 2708, 2700, 3831, 3832, 3833,
3825, 3827, 3834, 3835, 3828
432, 2704, 2711, 2712, 2705, 3829, 3836, 3837, 3830, 2713, 2714, 2715, 2707, 3838, 3839, 3840,
3832, 3834, 3841, 3842, 3835
433, 2711, 2718, 2719, 2712, 3836, 3843, 3844, 3837, 2720, 2721, 2722, 2714, 3845, 3846, 3847,
3839, 3841, 3848, 3849, 3842
434, 2718, 2725, 2726, 2719, 3843, 3850, 3851, 3844, 2727, 2728, 2729, 2721, 3852, 3853, 3854,
3846, 3848, 3855, 3856, 3849
435, 2725, 2732, 2733, 2726, 3850, 3857, 3858, 3851, 2734, 2735, 2736, 2728, 3859, 3860, 3861,
3853, 3855, 3862, 3863, 3856
436, 2732, 2739, 2740, 2733, 3857, 3864, 3865, 3858, 2741, 2742, 2743, 2735, 3866, 3867, 3868,
3860, 3862, 3869, 3870, 3863
437, 2739, 2746, 2747, 2740, 3864, 3871, 3872, 3865, 2748, 2749, 2750, 2742, 3873, 3874, 3875,
3867, 3869, 3876, 3877, 3870
438, 2746, 2753, 2754, 2747, 3871, 3878, 3879, 3872, 2755, 2756, 2757, 2749, 3880, 3881, 3882,
3874, 3876, 3883, 3884, 3877
439, 2753, 2760, 2761, 2754, 3878, 3885, 3886, 3879, 2762, 2763, 2764, 2756, 3887, 3888, 3889,
3881, 3883, 3890, 3891, 3884
440, 2760, 2767, 2768, 2761, 3885, 3892, 3893, 3886, 2769, 2770, 2771, 2763, 3894, 3895, 3896,
3888, 3890, 3897, 3898, 3891
441, 2767, 2774, 2775, 2768, 3892, 3899, 3900, 3893, 2776, 2777, 2778, 2770, 3901, 3902, 3903,
3895, 3897, 3904, 3905, 3898
442, 2774, 2781, 2782, 2775, 3899, 3906, 3907, 3900, 2783, 2784, 2785, 2777, 3908, 3909, 3910,
3902, 3904, 3911, 3912, 3905
443, 2781, 2788, 2789, 2782, 3906, 3913, 3914, 3907, 2790, 2791, 2792, 2784, 3915, 3916, 3917,
3909, 3911, 3918, 3919, 3912
444, 2788, 2795, 2796, 2789, 3913, 3920, 3921, 3914, 2797, 2798, 2799, 2791, 3922, 3923, 3924,
3916, 3918, 3925, 3926, 3919
445, 2795, 2802, 2803, 2796, 3920, 3927, 3928, 3921, 2804, 2805, 2806, 2798, 3929, 3930, 3931,
3923, 3925, 3932, 3933, 3926
446, 2802, 2809, 2810, 2803, 3927, 3934, 3935, 3928, 2811, 2812, 2813, 2805, 3936, 3937, 3938,
3930, 3932, 3939, 3940, 3933
447, 2809, 2816, 2817, 2810, 3934, 3941, 3942, 3935, 2818, 2819, 2820, 2812, 3943, 3944, 3945,
3937, 3939, 3946, 3947, 3940
448, 2816, 2823, 2824, 2817, 3941, 3948, 3949, 3942, 2825, 2826, 2827, 2819, 3950, 3951, 3952,
3944, 3946, 3953, 3954, 3947
449, 2823, 2830, 2831, 2824, 3948, 3955, 3956, 3949, 2832, 2833, 2834, 2826, 3957, 3958, 3959,
3951, 3953, 3960, 3961, 3954
450, 2830, 2837, 2838, 2831, 3955, 3962, 3963, 3956, 2839, 2840, 2841, 2833, 3964, 3965, 3966,
3958, 3960, 3967, 3968, 3961
451, 2837, 2844, 2845, 2838, 3962, 3969, 3970, 3963, 2846, 2847, 2848, 2840, 3971, 3972, 3973,
3965, 3967, 3974, 3975, 3968
452, 2844, 2851, 2852, 2845, 3969, 3976, 3977, 3970, 2853, 2854, 2855, 2847, 3978, 3979, 3980,
3972, 3974, 3981, 3982, 3975
453, 2851, 2858, 2859, 2852, 3976, 3983, 3984, 3977, 2860, 2861, 2862, 2854, 3985, 3986, 3987,
3979, 3981, 3988, 3989, 3982
454, 2858, 2865, 2866, 2859, 3983, 3990, 3991, 3984, 2867, 2868, 2869, 2861, 3992, 3993, 3994,
3986, 3988, 3995, 3996, 3989
455, 2865, 2872, 2873, 2866, 3990, 3997, 3998, 3991, 2874, 2875, 2876, 2868, 3999, 4000, 4001,
3993, 3995, 4002, 4003, 3996
456, 2872, 2879, 2880, 2873, 3997, 4004, 4005, 3998, 2881, 2882, 2883, 2875, 4006, 4007, 4008,
4000, 4002, 4009, 4010, 4003
457, 2879, 2886, 2887, 2880, 4004, 4011, 4012, 4005, 2888, 2889, 2890, 2882, 4013, 4014, 4015,
4007, 4009, 4016, 4017, 4010
458, 2886, 2893, 2894, 2887, 4011, 4018, 4019, 4012, 2895, 2896, 2897, 2889, 4020, 4021, 4022,
4014, 4016, 4023, 4024, 4017
459, 2893, 2900, 2901, 2894, 4018, 4025, 4026, 4019, 2902, 2903, 2904, 2896, 4027, 4028, 4029,
4021, 4023, 4030, 4031, 4024
460, 2900, 2907, 2908, 2901, 4025, 4032, 4033, 4026, 2909, 2910, 2911, 2903, 4034, 4035, 4036,
4028, 4030, 4037, 4038, 4031
461, 2907, 2914, 2915, 2908, 4032, 4039, 4040, 4033, 2916, 2917, 2918, 2910, 4041, 4042, 4043,
4035, 4037, 4044, 4045, 4038
462, 2914, 2921, 2922, 2915, 4039, 4046, 4047, 4040, 2923, 2924, 2925, 2917, 4048, 4049, 4050,
4042, 4044, 4051, 4052, 4045
463, 2921, 2928, 2929, 2922, 4046, 4053, 4054, 4047, 2930, 2931, 2932, 2924, 4055, 4056, 4057,
4049, 4051, 4058, 4059, 4052
464, 2928, 2935, 2936, 2929, 4053, 4060, 4061, 4054, 2937, 2938, 2939, 2931, 4062, 4063, 4064,
4056, 4058, 4065, 4066, 4059
465, 2935, 2942, 2943, 2936, 4060, 4067, 4068, 4061, 2944, 2945, 2946, 2938, 4069, 4070, 4071,
4063, 4065, 4072, 4073, 4066
466, 2942, 2949, 2950, 2943, 4067, 4074, 4075, 4068, 2951, 2952, 2953, 2945, 4076, 4077, 4078,
4070, 4072, 4079, 4080, 4073
467, 2949, 2956, 2957, 2950, 4074, 4081, 4082, 4075, 2958, 2959, 2960, 2952, 4083, 4084, 4085,
4077, 4079, 4086, 4087, 4080
468, 2956, 2963, 2964, 2957, 4081, 4088, 4089, 4082, 2965, 2966, 2967, 2959, 4090, 4091, 4092,
4084, 4086, 4093, 4094, 4087
469, 2963, 2970, 2971, 2964, 4088, 4095, 4096, 4089, 2972, 2973, 2974, 2966, 4097, 4098, 4099,
4091, 4093, 4100, 4101, 4094
470, 2970, 2977, 2978, 2971, 4095, 4102, 4103, 4096, 2979, 2980, 2981, 2973, 4104, 4105, 4106,
4098, 4100, 4107, 4108, 4101
471, 2977, 2984, 2985, 2978, 4102, 4109, 4110, 4103, 2986, 2987, 2988, 2980, 4111, 4112, 4113,
4105, 4107, 4114, 4115, 4108
472, 2984, 2991, 2992, 2985, 4109, 4116, 4117, 4110, 2993, 2994, 2995, 2987, 4118, 4119, 4120,
4112, 4114, 4121, 4122, 4115
473, 2991, 2998, 2999, 2992, 4116, 4123, 4124, 4117, 3000, 3001, 3002, 2994, 4125, 4126, 4127,
4119, 4121, 4128, 4129, 4122
474, 2998, 3005, 3006, 2999, 4123, 4130, 4131, 4124, 3007, 3008, 3009, 3001, 4132, 4133, 4134,
4126, 4128, 4135, 4136, 4129
475, 3005, 3012, 3013, 3006, 4130, 4137, 4138, 4131, 3014, 3015, 3016, 3008, 4139, 4140, 4141,
4133, 4135, 4142, 4143, 4136
476, 3012, 3019, 3020, 3013, 4137, 4144, 4145, 4138, 3021, 3022, 3023, 3015, 4146, 4147, 4148,
4140, 4142, 4149, 4150, 4143
477, 3019, 3026, 3027, 3020, 4144, 4151, 4152, 4145, 3028, 3029, 3030, 3022, 4153, 4154, 4155,
4147, 4149, 4156, 4157, 4150
478, 3026, 3033, 3034, 3027, 4151, 4158, 4159, 4152, 3035, 3036, 3037, 3029, 4160, 4161, 4162,
4154, 4156, 4163, 4164, 4157
479, 3033, 3040, 3041, 3034, 4158, 4165, 4166, 4159, 3042, 3043, 3044, 3036, 4167, 4168, 4169,
4161, 4163, 4170, 4171, 4164
480, 3040, 3047, 3048, 3041, 4165, 4172, 4173, 4166, 3049, 3050, 3051, 3043, 4174, 4175, 4176,
4168, 4170, 4177, 4178, 4171
481, 3054, 3055, 3056, 3057, 4179, 4180, 4181, 4182, 3058, 3059, 3060, 3061, 4183, 4184, 4185,
4186, 4187, 4188, 4189, 4190
482, 3055, 3066, 3067, 3056, 4180, 4191, 4192, 4181, 3068, 3069, 3070, 3059, 4193, 4194, 4195,
4184, 4188, 4196, 4197, 4189
483, 3066, 3073, 3074, 3067, 4191, 4198, 4199, 4192, 3075, 3076, 3077, 3069, 4200, 4201, 4202,
4194, 4196, 4203, 4204, 4197
484, 3073, 3080, 3081, 3074, 4198, 4205, 4206, 4199, 3082, 3083, 3084, 3076, 4207, 4208, 4209,
4201, 4203, 4210, 4211, 4204
485, 3080, 3087, 3088, 3081, 4205, 4212, 4213, 4206, 3089, 3090, 3091, 3083, 4214, 4215, 4216,
4208, 4210, 4217, 4218, 4211
486, 3087, 3094, 3095, 3088, 4212, 4219, 4220, 4213, 3096, 3097, 3098, 3090, 4221, 4222, 4223,
4215, 4217, 4224, 4225, 4218
487, 3094, 3101, 3102, 3095, 4219, 4226, 4227, 4220, 3103, 3104, 3105, 3097, 4228, 4229, 4230,
4222, 4224, 4231, 4232, 4225
488, 3101, 3108, 3109, 3102, 4226, 4233, 4234, 4227, 3110, 3111, 3112, 3104, 4235, 4236, 4237,
4229, 4231, 4238, 4239, 4232
489, 3108, 3115, 3116, 3109, 4233, 4240, 4241, 4234, 3117, 3118, 3119, 3111, 4242, 4243, 4244,
4236, 4238, 4245, 4246, 4239
490, 3115, 3122, 3123, 3116, 4240, 4247, 4248, 4241, 3124, 3125, 3126, 3118, 4249, 4250, 4251,
4243, 4245, 4252, 4253, 4246
491, 3122, 3129, 3130, 3123, 4247, 4254, 4255, 4248, 3131, 3132, 3133, 3125, 4256, 4257, 4258,
4250, 4252, 4259, 4260, 4253
492, 3129, 3136, 3137, 3130, 4254, 4261, 4262, 4255, 3138, 3139, 3140, 3132, 4263, 4264, 4265,
4257, 4259, 4266, 4267, 4260
493, 3136, 3143, 3144, 3137, 4261, 4268, 4269, 4262, 3145, 3146, 3147, 3139, 4270, 4271, 4272,
4264, 4266, 4273, 4274, 4267
494, 3143, 3150, 3151, 3144, 4268, 4275, 4276, 4269, 3152, 3153, 3154, 3146, 4277, 4278, 4279,
4271, 4273, 4280, 4281, 4274
495, 3150, 3157, 3158, 3151, 4275, 4282, 4283, 4276, 3159, 3160, 3161, 3153, 4284, 4285, 4286,
4278, 4280, 4287, 4288, 4281
496, 3157, 3164, 3165, 3158, 4282, 4289, 4290, 4283, 3166, 3167, 3168, 3160, 4291, 4292, 4293,
4285, 4287, 4294, 4295, 4288
497, 3164, 3171, 3172, 3165, 4289, 4296, 4297, 4290, 3173, 3174, 3175, 3167, 4298, 4299, 4300,
4292, 4294, 4301, 4302, 4295
498, 3171, 3178, 3179, 3172, 4296, 4303, 4304, 4297, 3180, 3181, 3182, 3174, 4305, 4306, 4307,
4299, 4301, 4308, 4309, 4302
499, 3178, 3185, 3186, 3179, 4303, 4310, 4311, 4304, 3187, 3188, 3189, 3181, 4312, 4313, 4314,
4306, 4308, 4315, 4316, 4309
500, 3185, 3192, 3193, 3186, 4310, 4317, 4318, 4311, 3194, 3195, 3196, 3188, 4319, 4320, 4321,
4313, 4315, 4322, 4323, 4316
501, 3192, 3199, 3200, 3193, 4317, 4324, 4325, 4318, 3201, 3202, 3203, 3195, 4326, 4327, 4328,
4320, 4322, 4329, 4330, 4323
502, 3199, 3206, 3207, 3200, 4324, 4331, 4332, 4325, 3208, 3209, 3210, 3202, 4333, 4334, 4335,
4327, 4329, 4336, 4337, 4330
503, 3206, 3213, 3214, 3207, 4331, 4338, 4339, 4332, 3215, 3216, 3217, 3209, 4340, 4341, 4342,
4334, 4336, 4343, 4344, 4337
504, 3213, 3220, 3221, 3214, 4338, 4345, 4346, 4339, 3222, 3223, 3224, 3216, 4347, 4348, 4349,
4341, 4343, 4350, 4351, 4344
505, 3220, 3227, 3228, 3221, 4345, 4352, 4353, 4346, 3229, 3230, 3231, 3223, 4354, 4355, 4356,
4348, 4350, 4357, 4358, 4351
506, 3227, 3234, 3235, 3228, 4352, 4359, 4360, 4353, 3236, 3237, 3238, 3230, 4361, 4362, 4363,
4355, 4357, 4364, 4365, 4358
507, 3234, 3241, 3242, 3235, 4359, 4366, 4367, 4360, 3243, 3244, 3245, 3237, 4368, 4369, 4370,
4362, 4364, 4371, 4372, 4365
508, 3241, 3248, 3249, 3242, 4366, 4373, 4374, 4367, 3250, 3251, 3252, 3244, 4375, 4376, 4377,
4369, 4371, 4378, 4379, 4372
509, 3248, 3255, 3256, 3249, 4373, 4380, 4381, 4374, 3257, 3258, 3259, 3251, 4382, 4383, 4384,
4376, 4378, 4385, 4386, 4379
510, 3255, 3262, 3263, 3256, 4380, 4387, 4388, 4381, 3264, 3265, 3266, 3258, 4389, 4390, 4391,
4383, 4385, 4392, 4393, 4386
511, 3262, 3269, 3270, 3263, 4387, 4394, 4395, 4388, 3271, 3272, 3273, 3265, 4396, 4397, 4398,
4390, 4392, 4399, 4400, 4393
512, 3269, 3276, 3277, 3270, 4394, 4401, 4402, 4395, 3278, 3279, 3280, 3272, 4403, 4404, 4405,
4397, 4399, 4406, 4407, 4400
513, 3276, 3283, 3284, 3277, 4401, 4408, 4409, 4402, 3285, 3286, 3287, 3279, 4410, 4411, 4412,
4404, 4406, 4413, 4414, 4407
514, 3283, 3290, 3291, 3284, 4408, 4415, 4416, 4409, 3292, 3293, 3294, 3286, 4417, 4418, 4419,
4411, 4413, 4420, 4421, 4414
515, 3290, 3297, 3298, 3291, 4415, 4422, 4423, 4416, 3299, 3300, 3301, 3293, 4424, 4425, 4426,
4418, 4420, 4427, 4428, 4421
516, 3297, 3304, 3305, 3298, 4422, 4429, 4430, 4423, 3306, 3307, 3308, 3300, 4431, 4432, 4433,
4425, 4427, 4434, 4435, 4428
517, 3304, 3311, 3312, 3305, 4429, 4436, 4437, 4430, 3313, 3314, 3315, 3307, 4438, 4439, 4440,
4432, 4434, 4441, 4442, 4435
518, 3311, 3318, 3319, 3312, 4436, 4443, 4444, 4437, 3320, 3321, 3322, 3314, 4445, 4446, 4447,
4439, 4441, 4448, 4449, 4442
519, 3318, 3325, 3326, 3319, 4443, 4450, 4451, 4444, 3327, 3328, 3329, 3321, 4452, 4453, 4454,
4446, 4448, 4455, 4456, 4449
520, 3325, 3332, 3333, 3326, 4450, 4457, 4458, 4451, 3334, 3335, 3336, 3328, 4459, 4460, 4461,
4453, 4455, 4462, 4463, 4456
521, 3332, 3339, 3340, 3333, 4457, 4464, 4465, 4458, 3341, 3342, 3343, 3335, 4466, 4467, 4468,
4460, 4462, 4469, 4470, 4463
522, 3339, 3346, 3347, 3340, 4464, 4471, 4472, 4465, 3348, 3349, 3350, 3342, 4473, 4474, 4475,
4467, 4469, 4476, 4477, 4470
523, 3346, 3353, 3354, 3347, 4471, 4478, 4479, 4472, 3355, 3356, 3357, 3349, 4480, 4481, 4482,
4474, 4476, 4483, 4484, 4477
524, 3353, 3360, 3361, 3354, 4478, 4485, 4486, 4479, 3362, 3363, 3364, 3356, 4487, 4488, 4489,
4481, 4483, 4490, 4491, 4484
525, 3360, 3367, 3368, 3361, 4485, 4492, 4493, 4486, 3369, 3370, 3371, 3363, 4494, 4495, 4496,
4488, 4490, 4497, 4498, 4491
526, 3367, 3374, 3375, 3368, 4492, 4499, 4500, 4493, 3376, 3377, 3378, 3370, 4501, 4502, 4503,
4495, 4497, 4504, 4505, 4498
527, 3374, 3381, 3382, 3375, 4499, 4506, 4507, 4500, 3383, 3384, 3385, 3377, 4508, 4509, 4510,
4502, 4504, 4511, 4512, 4505
528, 3381, 3388, 3389, 3382, 4506, 4513, 4514, 4507, 3390, 3391, 3392, 3384, 4515, 4516, 4517,
4509, 4511, 4518, 4519, 4512
529, 3388, 3395, 3396, 3389, 4513, 4520, 4521, 4514, 3397, 3398, 3399, 3391, 4522, 4523, 4524,
4516, 4518, 4525, 4526, 4519
530, 3395, 3402, 3403, 3396, 4520, 4527, 4528, 4521, 3404, 3405, 3406, 3398, 4529, 4530, 4531,
4523, 4525, 4532, 4533, 4526
531, 3402, 3409, 3410, 3403, 4527, 4534, 4535, 4528, 3411, 3412, 3413, 3405, 4536, 4537, 4538,
4530, 4532, 4539, 4540, 4533
532, 3409, 3416, 3417, 3410, 4534, 4541, 4542, 4535, 3418, 3419, 3420, 3412, 4543, 4544, 4545,
4537, 4539, 4546, 4547, 4540
533, 3416, 3423, 3424, 3417, 4541, 4548, 4549, 4542, 3425, 3426, 3427, 3419, 4550, 4551, 4552,
4544, 4546, 4553, 4554, 4547
534, 3423, 3430, 3431, 3424, 4548, 4555, 4556, 4549, 3432, 3433, 3434, 3426, 4557, 4558, 4559,
4551, 4553, 4560, 4561, 4554
535, 3430, 3437, 3438, 3431, 4555, 4562, 4563, 4556, 3439, 3440, 3441, 3433, 4564, 4565, 4566,
4558, 4560, 4567, 4568, 4561
536, 3437, 3444, 3445, 3438, 4562, 4569, 4570, 4563, 3446, 3447, 3448, 3440, 4571, 4572, 4573,
4565, 4567, 4574, 4575, 4568
537, 3444, 3451, 3452, 3445, 4569, 4576, 4577, 4570, 3453, 3454, 3455, 3447, 4578, 4579, 4580,
4572, 4574, 4581, 4582, 4575
538, 3451, 3458, 3459, 3452, 4576, 4583, 4584, 4577, 3460, 3461, 3462, 3454, 4585, 4586, 4587,
4579, 4581, 4588, 4589, 4582
539, 3458, 3465, 3466, 3459, 4583, 4590, 4591, 4584, 3467, 3468, 3469, 3461, 4592, 4593, 4594,
4586, 4588, 4595, 4596, 4589
540, 3465, 3472, 3473, 3466, 4590, 4597, 4598, 4591, 3474, 3475, 3476, 3468, 4599, 4600, 4601,
4593, 4595, 4602, 4603, 4596
541, 3472, 3479, 3480, 3473, 4597, 4604, 4605, 4598, 3481, 3482, 3483, 3475, 4606, 4607, 4608,
4600, 4602, 4609, 4610, 4603
542, 3479, 3486, 3487, 3480, 4604, 4611, 4612, 4605, 3488, 3489, 3490, 3482, 4613, 4614, 4615,
4607, 4609, 4616, 4617, 4610
543, 3486, 3493, 3494, 3487, 4611, 4618, 4619, 4612, 3495, 3496, 3497, 3489, 4620, 4621, 4622,
4614, 4616, 4623, 4624, 4617
544, 3493, 3500, 3501, 3494, 4618, 4625, 4626, 4619, 3502, 3503, 3504, 3496, 4627, 4628, 4629,
4621, 4623, 4630, 4631, 4624
545, 3500, 3507, 3508, 3501, 4625, 4632, 4633, 4626, 3509, 3510, 3511, 3503, 4634, 4635, 4636,
4628, 4630, 4637, 4638, 4631
546, 3507, 3514, 3515, 3508, 4632, 4639, 4640, 4633, 3516, 3517, 3518, 3510, 4641, 4642, 4643,
4635, 4637, 4644, 4645, 4638
547, 3514, 3521, 3522, 3515, 4639, 4646, 4647, 4640, 3523, 3524, 3525, 3517, 4648, 4649, 4650,
4642, 4644, 4651, 4652, 4645
548, 3521, 3528, 3529, 3522, 4646, 4653, 4654, 4647, 3530, 3531, 3532, 3524, 4655, 4656, 4657,
4649, 4651, 4658, 4659, 4652
549, 3528, 3535, 3536, 3529, 4653, 4660, 4661, 4654, 3537, 3538, 3539, 3531, 4662, 4663, 4664,
4656, 4658, 4665, 4666, 4659
550, 3535, 3542, 3543, 3536, 4660, 4667, 4668, 4661, 3544, 3545, 3546, 3538, 4669, 4670, 4671,
4663, 4665, 4672, 4673, 4666
551, 3542, 3549, 3550, 3543, 4667, 4674, 4675, 4668, 3551, 3552, 3553, 3545, 4676, 4677, 4678,
4670, 4672, 4679, 4680, 4673
552, 3549, 3556, 3557, 3550, 4674, 4681, 4682, 4675, 3558, 3559, 3560, 3552, 4683, 4684, 4685,
4677, 4679, 4686, 4687, 4680
553, 3556, 3563, 3564, 3557, 4681, 4688, 4689, 4682, 3565, 3566, 3567, 3559, 4690, 4691, 4692,
4684, 4686, 4693, 4694, 4687
554, 3563, 3570, 3571, 3564, 4688, 4695, 4696, 4689, 3572, 3573, 3574, 3566, 4697, 4698, 4699,
4691, 4693, 4700, 4701, 4694
555, 3570, 3577, 3578, 3571, 4695, 4702, 4703, 4696, 3579, 3580, 3581, 3573, 4704, 4705, 4706,
4698, 4700, 4707, 4708, 4701
556, 3577, 3584, 3585, 3578, 4702, 4709, 4710, 4703, 3586, 3587, 3588, 3580, 4711, 4712, 4713,
4705, 4707, 4714, 4715, 4708
557, 3584, 3591, 3592, 3585, 4709, 4716, 4717, 4710, 3593, 3594, 3595, 3587, 4718, 4719, 4720,
4712, 4714, 4721, 4722, 4715
558, 3591, 3598, 3599, 3592, 4716, 4723, 4724, 4717, 3600, 3601, 3602, 3594, 4725, 4726, 4727,
4719, 4721, 4728, 4729, 4722
559, 3598, 3605, 3606, 3599, 4723, 4730, 4731, 4724, 3607, 3608, 3609, 3601, 4732, 4733, 4734,
4726, 4728, 4735, 4736, 4729
560, 3605, 3612, 3613, 3606, 4730, 4737, 4738, 4731, 3614, 3615, 3616, 3608, 4739, 4740, 4741,
4733, 4735, 4742, 4743, 4736
561, 3612, 3619, 3620, 3613, 4737, 4744, 4745, 4738, 3621, 3622, 3623, 3615, 4746, 4747, 4748,
4740, 4742, 4749, 4750, 4743
562, 3619, 3626, 3627, 3620, 4744, 4751, 4752, 4745, 3628, 3629, 3630, 3622, 4753, 4754, 4755,
4747, 4749, 4756, 4757, 4750
563, 3626, 3633, 3634, 3627, 4751, 4758, 4759, 4752, 3635, 3636, 3637, 3629, 4760, 4761, 4762,
4754, 4756, 4763, 4764, 4757
564, 3633, 3640, 3641, 3634, 4758, 4765, 4766, 4759, 3642, 3643, 3644, 3636, 4767, 4768, 4769,
4761, 4763, 4770, 4771, 4764
565, 3640, 3647, 3648, 3641, 4765, 4772, 4773, 4766, 3649, 3650, 3651, 3643, 4774, 4775, 4776,
4768, 4770, 4777, 4778, 4771
566, 3647, 3654, 3655, 3648, 4772, 4779, 4780, 4773, 3656, 3657, 3658, 3650, 4781, 4782, 4783,
4775, 4777, 4784, 4785, 4778
567, 3654, 3661, 3662, 3655, 4779, 4786, 4787, 4780, 3663, 3664, 3665, 3657, 4788, 4789, 4790,
4782, 4784, 4791, 4792, 4785
568, 3661, 3668, 3669, 3662, 4786, 4793, 4794, 4787, 3670, 3671, 3672, 3664, 4795, 4796, 4797,
4789, 4791, 4798, 4799, 4792
569, 3668, 3675, 3676, 3669, 4793, 4800, 4801, 4794, 3677, 3678, 3679, 3671, 4802, 4803, 4804,
4796, 4798, 4805, 4806, 4799
570, 3675, 3682, 3683, 3676, 4800, 4807, 4808, 4801, 3684, 3685, 3686, 3678, 4809, 4810, 4811,
4803, 4805, 4812, 4813, 4806
571, 3682, 3689, 3690, 3683, 4807, 4814, 4815, 4808, 3691, 3692, 3693, 3685, 4816, 4817, 4818,
4810, 4812, 4819, 4820, 4813
572, 3689, 3696, 3697, 3690, 4814, 4821, 4822, 4815, 3698, 3699, 3700, 3692, 4823, 4824, 4825,
4817, 4819, 4826, 4827, 4820
573, 3696, 3703, 3704, 3697, 4821, 4828, 4829, 4822, 3705, 3706, 3707, 3699, 4830, 4831, 4832,
4824, 4826, 4833, 4834, 4827
574, 3703, 3710, 3711, 3704, 4828, 4835, 4836, 4829, 3712, 3713, 3714, 3706, 4837, 4838, 4839,
4831, 4833, 4840, 4841, 4834
575, 3710, 3717, 3718, 3711, 4835, 4842, 4843, 4836, 3719, 3720, 3721, 3713, 4844, 4845, 4846,
4838, 4840, 4847, 4848, 4841
576, 3717, 3724, 3725, 3718, 4842, 4849, 4850, 4843, 3726, 3727, 3728, 3720, 4851, 4852, 4853,
4845, 4847, 4854, 4855, 4848
577, 3724, 3731, 3732, 3725, 4849, 4856, 4857, 4850, 3733, 3734, 3735, 3727, 4858, 4859, 4860,
4852, 4854, 4861, 4862, 4855
578, 3731, 3738, 3739, 3732, 4856, 4863, 4864, 4857, 3740, 3741, 3742, 3734, 4865, 4866, 4867,
4859, 4861, 4868, 4869, 4862
579, 3738, 3745, 3746, 3739, 4863, 4870, 4871, 4864, 3747, 3748, 3749, 3741, 4872, 4873, 4874,
4866, 4868, 4875, 4876, 4869
580, 3745, 3752, 3753, 3746, 4870, 4877, 4878, 4871, 3754, 3755, 3756, 3748, 4879, 4880, 4881,
4873, 4875, 4882, 4883, 4876
581, 3752, 3759, 3760, 3753, 4877, 4884, 4885, 4878, 3761, 3762, 3763, 3755, 4886, 4887, 4888,
4880, 4882, 4889, 4890, 4883
582, 3759, 3766, 3767, 3760, 4884, 4891, 4892, 4885, 3768, 3769, 3770, 3762, 4893, 4894, 4895,
4887, 4889, 4896, 4897, 4890
583, 3766, 3773, 3774, 3767, 4891, 4898, 4899, 4892, 3775, 3776, 3777, 3769, 4900, 4901, 4902,
4894, 4896, 4903, 4904, 4897
584, 3773, 3780, 3781, 3774, 4898, 4905, 4906, 4899, 3782, 3783, 3784, 3776, 4907, 4908, 4909,
4901, 4903, 4910, 4911, 4904
585, 3780, 3787, 3788, 3781, 4905, 4912, 4913, 4906, 3789, 3790, 3791, 3783, 4914, 4915, 4916,
4908, 4910, 4917, 4918, 4911
586, 3787, 3794, 3795, 3788, 4912, 4919, 4920, 4913, 3796, 3797, 3798, 3790, 4921, 4922, 4923,
4915, 4917, 4924, 4925, 4918
587, 3794, 3801, 3802, 3795, 4919, 4926, 4927, 4920, 3803, 3804, 3805, 3797, 4928, 4929, 4930,
4922, 4924, 4931, 4932, 4925
588, 3801, 3808, 3809, 3802, 4926, 4933, 4934, 4927, 3810, 3811, 3812, 3804, 4935, 4936, 4937,
4929, 4931, 4938, 4939, 4932
589, 3808, 3815, 3816, 3809, 4933, 4940, 4941, 4934, 3817, 3818, 3819, 3811, 4942, 4943, 4944,
4936, 4938, 4945, 4946, 4939
590, 3815, 3822, 3823, 3816, 4940, 4947, 4948, 4941, 3824, 3825, 3826, 3818, 4949, 4950, 4951,
4943, 4945, 4952, 4953, 4946
591, 3822, 3829, 3830, 3823, 4947, 4954, 4955, 4948, 3831, 3832, 3833, 3825, 4956, 4957, 4958,
4950, 4952, 4959, 4960, 4953
592, 3829, 3836, 3837, 3830, 4954, 4961, 4962, 4955, 3838, 3839, 3840, 3832, 4963, 4964, 4965,
4957, 4959, 4966, 4967, 4960
593, 3836, 3843, 3844, 3837, 4961, 4968, 4969, 4962, 3845, 3846, 3847, 3839, 4970, 4971, 4972,
4964, 4966, 4973, 4974, 4967
594, 3843, 3850, 3851, 3844, 4968, 4975, 4976, 4969, 3852, 3853, 3854, 3846, 4977, 4978, 4979,
4971, 4973, 4980, 4981, 4974
595, 3850, 3857, 3858, 3851, 4975, 4982, 4983, 4976, 3859, 3860, 3861, 3853, 4984, 4985, 4986,
4978, 4980, 4987, 4988, 4981
596, 3857, 3864, 3865, 3858, 4982, 4989, 4990, 4983, 3866, 3867, 3868, 3860, 4991, 4992, 4993,
4985, 4987, 4994, 4995, 4988
597, 3864, 3871, 3872, 3865, 4989, 4996, 4997, 4990, 3873, 3874, 3875, 3867, 4998, 4999, 5000,
4992, 4994, 5001, 5002, 4995
598, 3871, 3878, 3879, 3872, 4996, 5003, 5004, 4997, 3880, 3881, 3882, 3874, 5005, 5006, 5007,
4999, 5001, 5008, 5009, 5002
599, 3878, 3885, 3886, 3879, 5003, 5010, 5011, 5004, 3887, 3888, 3889, 3881, 5012, 5013, 5014,
5006, 5008, 5015, 5016, 5009
600, 3885, 3892, 3893, 3886, 5010, 5017, 5018, 5011, 3894, 3895, 3896, 3888, 5019, 5020, 5021,
5013, 5015, 5022, 5023, 5016
601, 3892, 3899, 3900, 3893, 5017, 5024, 5025, 5018, 3901, 3902, 3903, 3895, 5026, 5027, 5028,
5020, 5022, 5029, 5030, 5023
602, 3899, 3906, 3907, 3900, 5024, 5031, 5032, 5025, 3908, 3909, 3910, 3902, 5033, 5034, 5035,
5027, 5029, 5036, 5037, 5030
603, 3906, 3913, 3914, 3907, 5031, 5038, 5039, 5032, 3915, 3916, 3917, 3909, 5040, 5041, 5042,
5034, 5036, 5043, 5044, 5037
604, 3913, 3920, 3921, 3914, 5038, 5045, 5046, 5039, 3922, 3923, 3924, 3916, 5047, 5048, 5049,
5041, 5043, 5050, 5051, 5044
605, 3920, 3927, 3928, 3921, 5045, 5052, 5053, 5046, 3929, 3930, 3931, 3923, 5054, 5055, 5056,
5048, 5050, 5057, 5058, 5051
606, 3927, 3934, 3935, 3928, 5052, 5059, 5060, 5053, 3936, 3937, 3938, 3930, 5061, 5062, 5063,
5055, 5057, 5064, 5065, 5058
607, 3934, 3941, 3942, 3935, 5059, 5066, 5067, 5060, 3943, 3944, 3945, 3937, 5068, 5069, 5070,
5062, 5064, 5071, 5072, 5065
608, 3941, 3948, 3949, 3942, 5066, 5073, 5074, 5067, 3950, 3951, 3952, 3944, 5075, 5076, 5077,
5069, 5071, 5078, 5079, 5072
609, 3948, 3955, 3956, 3949, 5073, 5080, 5081, 5074, 3957, 3958, 3959, 3951, 5082, 5083, 5084,
5076, 5078, 5085, 5086, 5079
610, 3955, 3962, 3963, 3956, 5080, 5087, 5088, 5081, 3964, 3965, 3966, 3958, 5089, 5090, 5091,
5083, 5085, 5092, 5093, 5086
611, 3962, 3969, 3970, 3963, 5087, 5094, 5095, 5088, 3971, 3972, 3973, 3965, 5096, 5097, 5098,
5090, 5092, 5099, 5100, 5093
612, 3969, 3976, 3977, 3970, 5094, 5101, 5102, 5095, 3978, 3979, 3980, 3972, 5103, 5104, 5105,
5097, 5099, 5106, 5107, 5100
613, 3976, 3983, 3984, 3977, 5101, 5108, 5109, 5102, 3985, 3986, 3987, 3979, 5110, 5111, 5112,
5104, 5106, 5113, 5114, 5107
614, 3983, 3990, 3991, 3984, 5108, 5115, 5116, 5109, 3992, 3993, 3994, 3986, 5117, 5118, 5119,
5111, 5113, 5120, 5121, 5114
615, 3990, 3997, 3998, 3991, 5115, 5122, 5123, 5116, 3999, 4000, 4001, 3993, 5124, 5125, 5126,
5118, 5120, 5127, 5128, 5121
616, 3997, 4004, 4005, 3998, 5122, 5129, 5130, 5123, 4006, 4007, 4008, 4000, 5131, 5132, 5133,
5125, 5127, 5134, 5135, 5128
617, 4004, 4011, 4012, 4005, 5129, 5136, 5137, 5130, 4013, 4014, 4015, 4007, 5138, 5139, 5140,
5132, 5134, 5141, 5142, 5135
618, 4011, 4018, 4019, 4012, 5136, 5143, 5144, 5137, 4020, 4021, 4022, 4014, 5145, 5146, 5147,
5139, 5141, 5148, 5149, 5142
619, 4018, 4025, 4026, 4019, 5143, 5150, 5151, 5144, 4027, 4028, 4029, 4021, 5152, 5153, 5154,
5146, 5148, 5155, 5156, 5149
620, 4025, 4032, 4033, 4026, 5150, 5157, 5158, 5151, 4034, 4035, 4036, 4028, 5159, 5160, 5161,
5153, 5155, 5162, 5163, 5156
621, 4032, 4039, 4040, 4033, 5157, 5164, 5165, 5158, 4041, 4042, 4043, 4035, 5166, 5167, 5168,
5160, 5162, 5169, 5170, 5163
622, 4039, 4046, 4047, 4040, 5164, 5171, 5172, 5165, 4048, 4049, 4050, 4042, 5173, 5174, 5175,
5167, 5169, 5176, 5177, 5170
623, 4046, 4053, 4054, 4047, 5171, 5178, 5179, 5172, 4055, 4056, 4057, 4049, 5180, 5181, 5182,
5174, 5176, 5183, 5184, 5177
624, 4053, 4060, 4061, 4054, 5178, 5185, 5186, 5179, 4062, 4063, 4064, 4056, 5187, 5188, 5189,
5181, 5183, 5190, 5191, 5184
625, 4060, 4067, 4068, 4061, 5185, 5192, 5193, 5186, 4069, 4070, 4071, 4063, 5194, 5195, 5196,
5188, 5190, 5197, 5198, 5191
626, 4067, 4074, 4075, 4068, 5192, 5199, 5200, 5193, 4076, 4077, 4078, 4070, 5201, 5202, 5203,
5195, 5197, 5204, 5205, 5198
627, 4074, 4081, 4082, 4075, 5199, 5206, 5207, 5200, 4083, 4084, 4085, 4077, 5208, 5209, 5210,
5202, 5204, 5211, 5212, 5205
628, 4081, 4088, 4089, 4082, 5206, 5213, 5214, 5207, 4090, 4091, 4092, 4084, 5215, 5216, 5217,
5209, 5211, 5218, 5219, 5212
629, 4088, 4095, 4096, 4089, 5213, 5220, 5221, 5214, 4097, 4098, 4099, 4091, 5222, 5223, 5224,
5216, 5218, 5225, 5226, 5219
630, 4095, 4102, 4103, 4096, 5220, 5227, 5228, 5221, 4104, 4105, 4106, 4098, 5229, 5230, 5231,
5223, 5225, 5232, 5233, 5226
631, 4102, 4109, 4110, 4103, 5227, 5234, 5235, 5228, 4111, 4112, 4113, 4105, 5236, 5237, 5238,
5230, 5232, 5239, 5240, 5233
632, 4109, 4116, 4117, 4110, 5234, 5241, 5242, 5235, 4118, 4119, 4120, 4112, 5243, 5244, 5245,
5237, 5239, 5246, 5247, 5240
633, 4116, 4123, 4124, 4117, 5241, 5248, 5249, 5242, 4125, 4126, 4127, 4119, 5250, 5251, 5252,
5244, 5246, 5253, 5254, 5247
634, 4123, 4130, 4131, 4124, 5248, 5255, 5256, 5249, 4132, 4133, 4134, 4126, 5257, 5258, 5259,
5251, 5253, 5260, 5261, 5254
635, 4130, 4137, 4138, 4131, 5255, 5262, 5263, 5256, 4139, 4140, 4141, 4133, 5264, 5265, 5266,
5258, 5260, 5267, 5268, 5261
636, 4137, 4144, 4145, 4138, 5262, 5269, 5270, 5263, 4146, 4147, 4148, 4140, 5271, 5272, 5273,
5265, 5267, 5274, 5275, 5268
637, 4144, 4151, 4152, 4145, 5269, 5276, 5277, 5270, 4153, 4154, 4155, 4147, 5278, 5279, 5280,
5272, 5274, 5281, 5282, 5275
638, 4151, 4158, 4159, 4152, 5276, 5283, 5284, 5277, 4160, 4161, 4162, 4154, 5285, 5286, 5287,
5279, 5281, 5288, 5289, 5282
639, 4158, 4165, 4166, 4159, 5283, 5290, 5291, 5284, 4167, 4168, 4169, 4161, 5292, 5293, 5294,
5286, 5288, 5295, 5296, 5289
640, 4165, 4172, 4173, 4166, 5290, 5297, 5298, 5291, 4174, 4175, 4176, 4168, 5299, 5300, 5301,
5293, 5295, 5302, 5303, 5296
641, 4179, 4180, 4181, 4182, 5304, 5305, 5306, 5307, 4183, 4184, 4185, 4186, 5308, 5309, 5310,
5311, 5312, 5313, 5314, 5315
642, 4180, 4191, 4192, 4181, 5305, 5316, 5317, 5306, 4193, 4194, 4195, 4184, 5318, 5319, 5320,
5309, 5313, 5321, 5322, 5314
643, 4191, 4198, 4199, 4192, 5316, 5323, 5324, 5317, 4200, 4201, 4202, 4194, 5325, 5326, 5327,
5319, 5321, 5328, 5329, 5322
644, 4198, 4205, 4206, 4199, 5323, 5330, 5331, 5324, 4207, 4208, 4209, 4201, 5332, 5333, 5334,
5326, 5328, 5335, 5336, 5329
645, 4205, 4212, 4213, 4206, 5330, 5337, 5338, 5331, 4214, 4215, 4216, 4208, 5339, 5340, 5341,
5333, 5335, 5342, 5343, 5336
646, 4212, 4219, 4220, 4213, 5337, 5344, 5345, 5338, 4221, 4222, 4223, 4215, 5346, 5347, 5348,
5340, 5342, 5349, 5350, 5343
647, 4219, 4226, 4227, 4220, 5344, 5351, 5352, 5345, 4228, 4229, 4230, 4222, 5353, 5354, 5355,
5347, 5349, 5356, 5357, 5350
648, 4226, 4233, 4234, 4227, 5351, 5358, 5359, 5352, 4235, 4236, 4237, 4229, 5360, 5361, 5362,
5354, 5356, 5363, 5364, 5357
649, 4233, 4240, 4241, 4234, 5358, 5365, 5366, 5359, 4242, 4243, 4244, 4236, 5367, 5368, 5369,
5361, 5363, 5370, 5371, 5364
650, 4240, 4247, 4248, 4241, 5365, 5372, 5373, 5366, 4249, 4250, 4251, 4243, 5374, 5375, 5376,
5368, 5370, 5377, 5378, 5371
651, 4247, 4254, 4255, 4248, 5372, 5379, 5380, 5373, 4256, 4257, 4258, 4250, 5381, 5382, 5383,
5375, 5377, 5384, 5385, 5378
652, 4254, 4261, 4262, 4255, 5379, 5386, 5387, 5380, 4263, 4264, 4265, 4257, 5388, 5389, 5390,
5382, 5384, 5391, 5392, 5385
653, 4261, 4268, 4269, 4262, 5386, 5393, 5394, 5387, 4270, 4271, 4272, 4264, 5395, 5396, 5397,
5389, 5391, 5398, 5399, 5392
654, 4268, 4275, 4276, 4269, 5393, 5400, 5401, 5394, 4277, 4278, 4279, 4271, 5402, 5403, 5404,
5396, 5398, 5405, 5406, 5399
655, 4275, 4282, 4283, 4276, 5400, 5407, 5408, 5401, 4284, 4285, 4286, 4278, 5409, 5410, 5411,
5403, 5405, 5412, 5413, 5406
656, 4282, 4289, 4290, 4283, 5407, 5414, 5415, 5408, 4291, 4292, 4293, 4285, 5416, 5417, 5418,
5410, 5412, 5419, 5420, 5413
657, 4289, 4296, 4297, 4290, 5414, 5421, 5422, 5415, 4298, 4299, 4300, 4292, 5423, 5424, 5425,
5417, 5419, 5426, 5427, 5420
658, 4296, 4303, 4304, 4297, 5421, 5428, 5429, 5422, 4305, 4306, 4307, 4299, 5430, 5431, 5432,
5424, 5426, 5433, 5434, 5427
659, 4303, 4310, 4311, 4304, 5428, 5435, 5436, 5429, 4312, 4313, 4314, 4306, 5437, 5438, 5439,
5431, 5433, 5440, 5441, 5434
660, 4310, 4317, 4318, 4311, 5435, 5442, 5443, 5436, 4319, 4320, 4321, 4313, 5444, 5445, 5446,
5438, 5440, 5447, 5448, 5441
661, 4317, 4324, 4325, 4318, 5442, 5449, 5450, 5443, 4326, 4327, 4328, 4320, 5451, 5452, 5453,
5445, 5447, 5454, 5455, 5448
662, 4324, 4331, 4332, 4325, 5449, 5456, 5457, 5450, 4333, 4334, 4335, 4327, 5458, 5459, 5460,
5452, 5454, 5461, 5462, 5455
663, 4331, 4338, 4339, 4332, 5456, 5463, 5464, 5457, 4340, 4341, 4342, 4334, 5465, 5466, 5467,
5459, 5461, 5468, 5469, 5462
664, 4338, 4345, 4346, 4339, 5463, 5470, 5471, 5464, 4347, 4348, 4349, 4341, 5472, 5473, 5474,
5466, 5468, 5475, 5476, 5469
665, 4345, 4352, 4353, 4346, 5470, 5477, 5478, 5471, 4354, 4355, 4356, 4348, 5479, 5480, 5481,
5473, 5475, 5482, 5483, 5476
666, 4352, 4359, 4360, 4353, 5477, 5484, 5485, 5478, 4361, 4362, 4363, 4355, 5486, 5487, 5488,
5480, 5482, 5489, 5490, 5483
667, 4359, 4366, 4367, 4360, 5484, 5491, 5492, 5485, 4368, 4369, 4370, 4362, 5493, 5494, 5495,
5487, 5489, 5496, 5497, 5490
668, 4366, 4373, 4374, 4367, 5491, 5498, 5499, 5492, 4375, 4376, 4377, 4369, 5500, 5501, 5502,
5494, 5496, 5503, 5504, 5497
669, 4373, 4380, 4381, 4374, 5498, 5505, 5506, 5499, 4382, 4383, 4384, 4376, 5507, 5508, 5509,
5501, 5503, 5510, 5511, 5504
670, 4380, 4387, 4388, 4381, 5505, 5512, 5513, 5506, 4389, 4390, 4391, 4383, 5514, 5515, 5516,
5508, 5510, 5517, 5518, 5511
671, 4387, 4394, 4395, 4388, 5512, 5519, 5520, 5513, 4396, 4397, 4398, 4390, 5521, 5522, 5523,
5515, 5517, 5524, 5525, 5518
672, 4394, 4401, 4402, 4395, 5519, 5526, 5527, 5520, 4403, 4404, 4405, 4397, 5528, 5529, 5530,
5522, 5524, 5531, 5532, 5525
673, 4401, 4408, 4409, 4402, 5526, 5533, 5534, 5527, 4410, 4411, 4412, 4404, 5535, 5536, 5537,
5529, 5531, 5538, 5539, 5532
674, 4408, 4415, 4416, 4409, 5533, 5540, 5541, 5534, 4417, 4418, 4419, 4411, 5542, 5543, 5544,
5536, 5538, 5545, 5546, 5539
675, 4415, 4422, 4423, 4416, 5540, 5547, 5548, 5541, 4424, 4425, 4426, 4418, 5549, 5550, 5551,
5543, 5545, 5552, 5553, 5546
676, 4422, 4429, 4430, 4423, 5547, 5554, 5555, 5548, 4431, 4432, 4433, 4425, 5556, 5557, 5558,
5550, 5552, 5559, 5560, 5553
677, 4429, 4436, 4437, 4430, 5554, 5561, 5562, 5555, 4438, 4439, 4440, 4432, 5563, 5564, 5565,
5557, 5559, 5566, 5567, 5560
678, 4436, 4443, 4444, 4437, 5561, 5568, 5569, 5562, 4445, 4446, 4447, 4439, 5570, 5571, 5572,
5564, 5566, 5573, 5574, 5567
679, 4443, 4450, 4451, 4444, 5568, 5575, 5576, 5569, 4452, 4453, 4454, 4446, 5577, 5578, 5579,
5571, 5573, 5580, 5581, 5574
680, 4450, 4457, 4458, 4451, 5575, 5582, 5583, 5576, 4459, 4460, 4461, 4453, 5584, 5585, 5586,
5578, 5580, 5587, 5588, 5581
681, 4457, 4464, 4465, 4458, 5582, 5589, 5590, 5583, 4466, 4467, 4468, 4460, 5591, 5592, 5593,
5585, 5587, 5594, 5595, 5588
682, 4464, 4471, 4472, 4465, 5589, 5596, 5597, 5590, 4473, 4474, 4475, 4467, 5598, 5599, 5600,
5592, 5594, 5601, 5602, 5595
683, 4471, 4478, 4479, 4472, 5596, 5603, 5604, 5597, 4480, 4481, 4482, 4474, 5605, 5606, 5607,
5599, 5601, 5608, 5609, 5602
684, 4478, 4485, 4486, 4479, 5603, 5610, 5611, 5604, 4487, 4488, 4489, 4481, 5612, 5613, 5614,
5606, 5608, 5615, 5616, 5609
685, 4485, 4492, 4493, 4486, 5610, 5617, 5618, 5611, 4494, 4495, 4496, 4488, 5619, 5620, 5621,
5613, 5615, 5622, 5623, 5616
686, 4492, 4499, 4500, 4493, 5617, 5624, 5625, 5618, 4501, 4502, 4503, 4495, 5626, 5627, 5628,
5620, 5622, 5629, 5630, 5623
687, 4499, 4506, 4507, 4500, 5624, 5631, 5632, 5625, 4508, 4509, 4510, 4502, 5633, 5634, 5635,
5627, 5629, 5636, 5637, 5630
688, 4506, 4513, 4514, 4507, 5631, 5638, 5639, 5632, 4515, 4516, 4517, 4509, 5640, 5641, 5642,
5634, 5636, 5643, 5644, 5637
689, 4513, 4520, 4521, 4514, 5638, 5645, 5646, 5639, 4522, 4523, 4524, 4516, 5647, 5648, 5649,
5641, 5643, 5650, 5651, 5644
690, 4520, 4527, 4528, 4521, 5645, 5652, 5653, 5646, 4529, 4530, 4531, 4523, 5654, 5655, 5656,
5648, 5650, 5657, 5658, 5651
691, 4527, 4534, 4535, 4528, 5652, 5659, 5660, 5653, 4536, 4537, 4538, 4530, 5661, 5662, 5663,
5655, 5657, 5664, 5665, 5658
692, 4534, 4541, 4542, 4535, 5659, 5666, 5667, 5660, 4543, 4544, 4545, 4537, 5668, 5669, 5670,
5662, 5664, 5671, 5672, 5665
693, 4541, 4548, 4549, 4542, 5666, 5673, 5674, 5667, 4550, 4551, 4552, 4544, 5675, 5676, 5677,
5669, 5671, 5678, 5679, 5672
694, 4548, 4555, 4556, 4549, 5673, 5680, 5681, 5674, 4557, 4558, 4559, 4551, 5682, 5683, 5684,
5676, 5678, 5685, 5686, 5679
695, 4555, 4562, 4563, 4556, 5680, 5687, 5688, 5681, 4564, 4565, 4566, 4558, 5689, 5690, 5691,
5683, 5685, 5692, 5693, 5686
696, 4562, 4569, 4570, 4563, 5687, 5694, 5695, 5688, 4571, 4572, 4573, 4565, 5696, 5697, 5698,
5690, 5692, 5699, 5700, 5693
697, 4569, 4576, 4577, 4570, 5694, 5701, 5702, 5695, 4578, 4579, 4580, 4572, 5703, 5704, 5705,
5697, 5699, 5706, 5707, 5700
698, 4576, 4583, 4584, 4577, 5701, 5708, 5709, 5702, 4585, 4586, 4587, 4579, 5710, 5711, 5712,
5704, 5706, 5713, 5714, 5707
699, 4583, 4590, 4591, 4584, 5708, 5715, 5716, 5709, 4592, 4593, 4594, 4586, 5717, 5718, 5719,
5711, 5713, 5720, 5721, 5714
700, 4590, 4597, 4598, 4591, 5715, 5722, 5723, 5716, 4599, 4600, 4601, 4593, 5724, 5725, 5726,
5718, 5720, 5727, 5728, 5721
701, 4597, 4604, 4605, 4598, 5722, 5729, 5730, 5723, 4606, 4607, 4608, 4600, 5731, 5732, 5733,
5725, 5727, 5734, 5735, 5728
702, 4604, 4611, 4612, 4605, 5729, 5736, 5737, 5730, 4613, 4614, 4615, 4607, 5738, 5739, 5740,
5732, 5734, 5741, 5742, 5735
703, 4611, 4618, 4619, 4612, 5736, 5743, 5744, 5737, 4620, 4621, 4622, 4614, 5745, 5746, 5747,
5739, 5741, 5748, 5749, 5742
704, 4618, 4625, 4626, 4619, 5743, 5750, 5751, 5744, 4627, 4628, 4629, 4621, 5752, 5753, 5754,
5746, 5748, 5755, 5756, 5749
705, 4625, 4632, 4633, 4626, 5750, 5757, 5758, 5751, 4634, 4635, 4636, 4628, 5759, 5760, 5761,
5753, 5755, 5762, 5763, 5756
706, 4632, 4639, 4640, 4633, 5757, 5764, 5765, 5758, 4641, 4642, 4643, 4635, 5766, 5767, 5768,
5760, 5762, 5769, 5770, 5763
707, 4639, 4646, 4647, 4640, 5764, 5771, 5772, 5765, 4648, 4649, 4650, 4642, 5773, 5774, 5775,
5767, 5769, 5776, 5777, 5770
708, 4646, 4653, 4654, 4647, 5771, 5778, 5779, 5772, 4655, 4656, 4657, 4649, 5780, 5781, 5782,
5774, 5776, 5783, 5784, 5777
709, 4653, 4660, 4661, 4654, 5778, 5785, 5786, 5779, 4662, 4663, 4664, 4656, 5787, 5788, 5789,
5781, 5783, 5790, 5791, 5784
710, 4660, 4667, 4668, 4661, 5785, 5792, 5793, 5786, 4669, 4670, 4671, 4663, 5794, 5795, 5796,
5788, 5790, 5797, 5798, 5791
711, 4667, 4674, 4675, 4668, 5792, 5799, 5800, 5793, 4676, 4677, 4678, 4670, 5801, 5802, 5803,
5795, 5797, 5804, 5805, 5798
712, 4674, 4681, 4682, 4675, 5799, 5806, 5807, 5800, 4683, 4684, 4685, 4677, 5808, 5809, 5810,
5802, 5804, 5811, 5812, 5805
713, 4681, 4688, 4689, 4682, 5806, 5813, 5814, 5807, 4690, 4691, 4692, 4684, 5815, 5816, 5817,
5809, 5811, 5818, 5819, 5812
714, 4688, 4695, 4696, 4689, 5813, 5820, 5821, 5814, 4697, 4698, 4699, 4691, 5822, 5823, 5824,
5816, 5818, 5825, 5826, 5819
715, 4695, 4702, 4703, 4696, 5820, 5827, 5828, 5821, 4704, 4705, 4706, 4698, 5829, 5830, 5831,
5823, 5825, 5832, 5833, 5826
716, 4702, 4709, 4710, 4703, 5827, 5834, 5835, 5828, 4711, 4712, 4713, 4705, 5836, 5837, 5838,
5830, 5832, 5839, 5840, 5833
717, 4709, 4716, 4717, 4710, 5834, 5841, 5842, 5835, 4718, 4719, 4720, 4712, 5843, 5844, 5845,
5837, 5839, 5846, 5847, 5840
718, 4716, 4723, 4724, 4717, 5841, 5848, 5849, 5842, 4725, 4726, 4727, 4719, 5850, 5851, 5852,
5844, 5846, 5853, 5854, 5847
719, 4723, 4730, 4731, 4724, 5848, 5855, 5856, 5849, 4732, 4733, 4734, 4726, 5857, 5858, 5859,
5851, 5853, 5860, 5861, 5854
720, 4730, 4737, 4738, 4731, 5855, 5862, 5863, 5856, 4739, 4740, 4741, 4733, 5864, 5865, 5866,
5858, 5860, 5867, 5868, 5861
721, 4737, 4744, 4745, 4738, 5862, 5869, 5870, 5863, 4746, 4747, 4748, 4740, 5871, 5872, 5873,
5865, 5867, 5874, 5875, 5868
722, 4744, 4751, 4752, 4745, 5869, 5876, 5877, 5870, 4753, 4754, 4755, 4747, 5878, 5879, 5880,
5872, 5874, 5881, 5882, 5875
723, 4751, 4758, 4759, 4752, 5876, 5883, 5884, 5877, 4760, 4761, 4762, 4754, 5885, 5886, 5887,
5879, 5881, 5888, 5889, 5882
724, 4758, 4765, 4766, 4759, 5883, 5890, 5891, 5884, 4767, 4768, 4769, 4761, 5892, 5893, 5894,
5886, 5888, 5895, 5896, 5889
725, 4765, 4772, 4773, 4766, 5890, 5897, 5898, 5891, 4774, 4775, 4776, 4768, 5899, 5900, 5901,
5893, 5895, 5902, 5903, 5896
726, 4772, 4779, 4780, 4773, 5897, 5904, 5905, 5898, 4781, 4782, 4783, 4775, 5906, 5907, 5908,
5900, 5902, 5909, 5910, 5903
727, 4779, 4786, 4787, 4780, 5904, 5911, 5912, 5905, 4788, 4789, 4790, 4782, 5913, 5914, 5915,
5907, 5909, 5916, 5917, 5910
728, 4786, 4793, 4794, 4787, 5911, 5918, 5919, 5912, 4795, 4796, 4797, 4789, 5920, 5921, 5922,
5914, 5916, 5923, 5924, 5917
729, 4793, 4800, 4801, 4794, 5918, 5925, 5926, 5919, 4802, 4803, 4804, 4796, 5927, 5928, 5929,
5921, 5923, 5930, 5931, 5924
730, 4800, 4807, 4808, 4801, 5925, 5932, 5933, 5926, 4809, 4810, 4811, 4803, 5934, 5935, 5936,
5928, 5930, 5937, 5938, 5931
731, 4807, 4814, 4815, 4808, 5932, 5939, 5940, 5933, 4816, 4817, 4818, 4810, 5941, 5942, 5943,
5935, 5937, 5944, 5945, 5938
732, 4814, 4821, 4822, 4815, 5939, 5946, 5947, 5940, 4823, 4824, 4825, 4817, 5948, 5949, 5950,
5942, 5944, 5951, 5952, 5945
733, 4821, 4828, 4829, 4822, 5946, 5953, 5954, 5947, 4830, 4831, 4832, 4824, 5955, 5956, 5957,
5949, 5951, 5958, 5959, 5952
734, 4828, 4835, 4836, 4829, 5953, 5960, 5961, 5954, 4837, 4838, 4839, 4831, 5962, 5963, 5964,
5956, 5958, 5965, 5966, 5959
735, 4835, 4842, 4843, 4836, 5960, 5967, 5968, 5961, 4844, 4845, 4846, 4838, 5969, 5970, 5971,
5963, 5965, 5972, 5973, 5966
736, 4842, 4849, 4850, 4843, 5967, 5974, 5975, 5968, 4851, 4852, 4853, 4845, 5976, 5977, 5978,
5970, 5972, 5979, 5980, 5973
737, 4849, 4856, 4857, 4850, 5974, 5981, 5982, 5975, 4858, 4859, 4860, 4852, 5983, 5984, 5985,
5977, 5979, 5986, 5987, 5980
738, 4856, 4863, 4864, 4857, 5981, 5988, 5989, 5982, 4865, 4866, 4867, 4859, 5990, 5991, 5992,
5984, 5986, 5993, 5994, 5987
739, 4863, 4870, 4871, 4864, 5988, 5995, 5996, 5989, 4872, 4873, 4874, 4866, 5997, 5998, 5999,
5991, 5993, 6000, 6001, 5994
740, 4870, 4877, 4878, 4871, 5995, 6002, 6003, 5996, 4879, 4880, 4881, 4873, 6004, 6005, 6006,
5998, 6000, 6007, 6008, 6001
741, 4877, 4884, 4885, 4878, 6002, 6009, 6010, 6003, 4886, 4887, 4888, 4880, 6011, 6012, 6013,
6005, 6007, 6014, 6015, 6008
742, 4884, 4891, 4892, 4885, 6009, 6016, 6017, 6010, 4893, 4894, 4895, 4887, 6018, 6019, 6020,
6012, 6014, 6021, 6022, 6015
743, 4891, 4898, 4899, 4892, 6016, 6023, 6024, 6017, 4900, 4901, 4902, 4894, 6025, 6026, 6027,
6019, 6021, 6028, 6029, 6022
744, 4898, 4905, 4906, 4899, 6023, 6030, 6031, 6024, 4907, 4908, 4909, 4901, 6032, 6033, 6034,
6026, 6028, 6035, 6036, 6029
745, 4905, 4912, 4913, 4906, 6030, 6037, 6038, 6031, 4914, 4915, 4916, 4908, 6039, 6040, 6041,
6033, 6035, 6042, 6043, 6036
746, 4912, 4919, 4920, 4913, 6037, 6044, 6045, 6038, 4921, 4922, 4923, 4915, 6046, 6047, 6048,
6040, 6042, 6049, 6050, 6043
747, 4919, 4926, 4927, 4920, 6044, 6051, 6052, 6045, 4928, 4929, 4930, 4922, 6053, 6054, 6055,
6047, 6049, 6056, 6057, 6050
748, 4926, 4933, 4934, 4927, 6051, 6058, 6059, 6052, 4935, 4936, 4937, 4929, 6060, 6061, 6062,
6054, 6056, 6063, 6064, 6057
749, 4933, 4940, 4941, 4934, 6058, 6065, 6066, 6059, 4942, 4943, 4944, 4936, 6067, 6068, 6069,
6061, 6063, 6070, 6071, 6064
750, 4940, 4947, 4948, 4941, 6065, 6072, 6073, 6066, 4949, 4950, 4951, 4943, 6074, 6075, 6076,
6068, 6070, 6077, 6078, 6071
751, 4947, 4954, 4955, 4948, 6072, 6079, 6080, 6073, 4956, 4957, 4958, 4950, 6081, 6082, 6083,
6075, 6077, 6084, 6085, 6078
752, 4954, 4961, 4962, 4955, 6079, 6086, 6087, 6080, 4963, 4964, 4965, 4957, 6088, 6089, 6090,
6082, 6084, 6091, 6092, 6085
753, 4961, 4968, 4969, 4962, 6086, 6093, 6094, 6087, 4970, 4971, 4972, 4964, 6095, 6096, 6097,
6089, 6091, 6098, 6099, 6092
754, 4968, 4975, 4976, 4969, 6093, 6100, 6101, 6094, 4977, 4978, 4979, 4971, 6102, 6103, 6104,
6096, 6098, 6105, 6106, 6099
755, 4975, 4982, 4983, 4976, 6100, 6107, 6108, 6101, 4984, 4985, 4986, 4978, 6109, 6110, 6111,
6103, 6105, 6112, 6113, 6106
756, 4982, 4989, 4990, 4983, 6107, 6114, 6115, 6108, 4991, 4992, 4993, 4985, 6116, 6117, 6118,
6110, 6112, 6119, 6120, 6113
757, 4989, 4996, 4997, 4990, 6114, 6121, 6122, 6115, 4998, 4999, 5000, 4992, 6123, 6124, 6125,
6117, 6119, 6126, 6127, 6120
758, 4996, 5003, 5004, 4997, 6121, 6128, 6129, 6122, 5005, 5006, 5007, 4999, 6130, 6131, 6132,
6124, 6126, 6133, 6134, 6127
759, 5003, 5010, 5011, 5004, 6128, 6135, 6136, 6129, 5012, 5013, 5014, 5006, 6137, 6138, 6139,
6131, 6133, 6140, 6141, 6134
760, 5010, 5017, 5018, 5011, 6135, 6142, 6143, 6136, 5019, 5020, 5021, 5013, 6144, 6145, 6146,
6138, 6140, 6147, 6148, 6141
761, 5017, 5024, 5025, 5018, 6142, 6149, 6150, 6143, 5026, 5027, 5028, 5020, 6151, 6152, 6153,
6145, 6147, 6154, 6155, 6148
762, 5024, 5031, 5032, 5025, 6149, 6156, 6157, 6150, 5033, 5034, 5035, 5027, 6158, 6159, 6160,
6152, 6154, 6161, 6162, 6155
763, 5031, 5038, 5039, 5032, 6156, 6163, 6164, 6157, 5040, 5041, 5042, 5034, 6165, 6166, 6167,
6159, 6161, 6168, 6169, 6162
764, 5038, 5045, 5046, 5039, 6163, 6170, 6171, 6164, 5047, 5048, 5049, 5041, 6172, 6173, 6174,
6166, 6168, 6175, 6176, 6169
765, 5045, 5052, 5053, 5046, 6170, 6177, 6178, 6171, 5054, 5055, 5056, 5048, 6179, 6180, 6181,
6173, 6175, 6182, 6183, 6176
766, 5052, 5059, 5060, 5053, 6177, 6184, 6185, 6178, 5061, 5062, 5063, 5055, 6186, 6187, 6188,
6180, 6182, 6189, 6190, 6183
767, 5059, 5066, 5067, 5060, 6184, 6191, 6192, 6185, 5068, 5069, 5070, 5062, 6193, 6194, 6195,
6187, 6189, 6196, 6197, 6190
768, 5066, 5073, 5074, 5067, 6191, 6198, 6199, 6192, 5075, 5076, 5077, 5069, 6200, 6201, 6202,
6194, 6196, 6203, 6204, 6197
769, 5073, 5080, 5081, 5074, 6198, 6205, 6206, 6199, 5082, 5083, 5084, 5076, 6207, 6208, 6209,
6201, 6203, 6210, 6211, 6204
770, 5080, 5087, 5088, 5081, 6205, 6212, 6213, 6206, 5089, 5090, 5091, 5083, 6214, 6215, 6216,
6208, 6210, 6217, 6218, 6211
771, 5087, 5094, 5095, 5088, 6212, 6219, 6220, 6213, 5096, 5097, 5098, 5090, 6221, 6222, 6223,
6215, 6217, 6224, 6225, 6218
772, 5094, 5101, 5102, 5095, 6219, 6226, 6227, 6220, 5103, 5104, 5105, 5097, 6228, 6229, 6230,
6222, 6224, 6231, 6232, 6225
773, 5101, 5108, 5109, 5102, 6226, 6233, 6234, 6227, 5110, 5111, 5112, 5104, 6235, 6236, 6237,
6229, 6231, 6238, 6239, 6232
774, 5108, 5115, 5116, 5109, 6233, 6240, 6241, 6234, 5117, 5118, 5119, 5111, 6242, 6243, 6244,
6236, 6238, 6245, 6246, 6239
775, 5115, 5122, 5123, 5116, 6240, 6247, 6248, 6241, 5124, 5125, 5126, 5118, 6249, 6250, 6251,
6243, 6245, 6252, 6253, 6246
776, 5122, 5129, 5130, 5123, 6247, 6254, 6255, 6248, 5131, 5132, 5133, 5125, 6256, 6257, 6258,
6250, 6252, 6259, 6260, 6253
777, 5129, 5136, 5137, 5130, 6254, 6261, 6262, 6255, 5138, 5139, 5140, 5132, 6263, 6264, 6265,
6257, 6259, 6266, 6267, 6260
778, 5136, 5143, 5144, 5137, 6261, 6268, 6269, 6262, 5145, 5146, 5147, 5139, 6270, 6271, 6272,
6264, 6266, 6273, 6274, 6267
779, 5143, 5150, 5151, 5144, 6268, 6275, 6276, 6269, 5152, 5153, 5154, 5146, 6277, 6278, 6279,
6271, 6273, 6280, 6281, 6274
780, 5150, 5157, 5158, 5151, 6275, 6282, 6283, 6276, 5159, 5160, 5161, 5153, 6284, 6285, 6286,
6278, 6280, 6287, 6288, 6281
781, 5157, 5164, 5165, 5158, 6282, 6289, 6290, 6283, 5166, 5167, 5168, 5160, 6291, 6292, 6293,
6285, 6287, 6294, 6295, 6288
782, 5164, 5171, 5172, 5165, 6289, 6296, 6297, 6290, 5173, 5174, 5175, 5167, 6298, 6299, 6300,
6292, 6294, 6301, 6302, 6295
783, 5171, 5178, 5179, 5172, 6296, 6303, 6304, 6297, 5180, 5181, 5182, 5174, 6305, 6306, 6307,
6299, 6301, 6308, 6309, 6302
784, 5178, 5185, 5186, 5179, 6303, 6310, 6311, 6304, 5187, 5188, 5189, 5181, 6312, 6313, 6314,
6306, 6308, 6315, 6316, 6309
785, 5185, 5192, 5193, 5186, 6310, 6317, 6318, 6311, 5194, 5195, 5196, 5188, 6319, 6320, 6321,
6313, 6315, 6322, 6323, 6316
786, 5192, 5199, 5200, 5193, 6317, 6324, 6325, 6318, 5201, 5202, 5203, 5195, 6326, 6327, 6328,
6320, 6322, 6329, 6330, 6323
787, 5199, 5206, 5207, 5200, 6324, 6331, 6332, 6325, 5208, 5209, 5210, 5202, 6333, 6334, 6335,
6327, 6329, 6336, 6337, 6330
788, 5206, 5213, 5214, 5207, 6331, 6338, 6339, 6332, 5215, 5216, 5217, 5209, 6340, 6341, 6342,
6334, 6336, 6343, 6344, 6337
789, 5213, 5220, 5221, 5214, 6338, 6345, 6346, 6339, 5222, 5223, 5224, 5216, 6347, 6348, 6349,
6341, 6343, 6350, 6351, 6344
790, 5220, 5227, 5228, 5221, 6345, 6352, 6353, 6346, 5229, 5230, 5231, 5223, 6354, 6355, 6356,
6348, 6350, 6357, 6358, 6351
791, 5227, 5234, 5235, 5228, 6352, 6359, 6360, 6353, 5236, 5237, 5238, 5230, 6361, 6362, 6363,
6355, 6357, 6364, 6365, 6358
792, 5234, 5241, 5242, 5235, 6359, 6366, 6367, 6360, 5243, 5244, 5245, 5237, 6368, 6369, 6370,
6362, 6364, 6371, 6372, 6365
793, 5241, 5248, 5249, 5242, 6366, 6373, 6374, 6367, 5250, 5251, 5252, 5244, 6375, 6376, 6377,
6369, 6371, 6378, 6379, 6372
794, 5248, 5255, 5256, 5249, 6373, 6380, 6381, 6374, 5257, 5258, 5259, 5251, 6382, 6383, 6384,
6376, 6378, 6385, 6386, 6379
795, 5255, 5262, 5263, 5256, 6380, 6387, 6388, 6381, 5264, 5265, 5266, 5258, 6389, 6390, 6391,
6383, 6385, 6392, 6393, 6386
796, 5262, 5269, 5270, 5263, 6387, 6394, 6395, 6388, 5271, 5272, 5273, 5265, 6396, 6397, 6398,
6390, 6392, 6399, 6400, 6393
797, 5269, 5276, 5277, 5270, 6394, 6401, 6402, 6395, 5278, 5279, 5280, 5272, 6403, 6404, 6405,
6397, 6399, 6406, 6407, 6400
798, 5276, 5283, 5284, 5277, 6401, 6408, 6409, 6402, 5285, 5286, 5287, 5279, 6410, 6411, 6412,
6404, 6406, 6413, 6414, 6407
799, 5283, 5290, 5291, 5284, 6408, 6415, 6416, 6409, 5292, 5293, 5294, 5286, 6417, 6418, 6419,
6411, 6413, 6420, 6421, 6414
800, 5290, 5297, 5298, 5291, 6415, 6422, 6423, 6416, 5299, 5300, 5301, 5293, 6424, 6425, 6426,
6418, 6420, 6427, 6428, 6421
801, 5304, 5305, 5306, 5307, 6429, 6430, 6431, 6432, 5308, 5309, 5310, 5311, 6433, 6434, 6435,
6436, 6437, 6438, 6439, 6440
802, 5305, 5316, 5317, 5306, 6430, 6441, 6442, 6431, 5318, 5319, 5320, 5309, 6443, 6444, 6445,
6434, 6438, 6446, 6447, 6439
803, 5316, 5323, 5324, 5317, 6441, 6448, 6449, 6442, 5325, 5326, 5327, 5319, 6450, 6451, 6452,
6444, 6446, 6453, 6454, 6447
804, 5323, 5330, 5331, 5324, 6448, 6455, 6456, 6449, 5332, 5333, 5334, 5326, 6457, 6458, 6459,
6451, 6453, 6460, 6461, 6454
805, 5330, 5337, 5338, 5331, 6455, 6462, 6463, 6456, 5339, 5340, 5341, 5333, 6464, 6465, 6466,
6458, 6460, 6467, 6468, 6461
806, 5337, 5344, 5345, 5338, 6462, 6469, 6470, 6463, 5346, 5347, 5348, 5340, 6471, 6472, 6473,
6465, 6467, 6474, 6475, 6468
807, 5344, 5351, 5352, 5345, 6469, 6476, 6477, 6470, 5353, 5354, 5355, 5347, 6478, 6479, 6480,
6472, 6474, 6481, 6482, 6475
808, 5351, 5358, 5359, 5352, 6476, 6483, 6484, 6477, 5360, 5361, 5362, 5354, 6485, 6486, 6487,
6479, 6481, 6488, 6489, 6482
809, 5358, 5365, 5366, 5359, 6483, 6490, 6491, 6484, 5367, 5368, 5369, 5361, 6492, 6493, 6494,
6486, 6488, 6495, 6496, 6489
810, 5365, 5372, 5373, 5366, 6490, 6497, 6498, 6491, 5374, 5375, 5376, 5368, 6499, 6500, 6501,
6493, 6495, 6502, 6503, 6496
811, 5372, 5379, 5380, 5373, 6497, 6504, 6505, 6498, 5381, 5382, 5383, 5375, 6506, 6507, 6508,
6500, 6502, 6509, 6510, 6503
812, 5379, 5386, 5387, 5380, 6504, 6511, 6512, 6505, 5388, 5389, 5390, 5382, 6513, 6514, 6515,
6507, 6509, 6516, 6517, 6510
813, 5386, 5393, 5394, 5387, 6511, 6518, 6519, 6512, 5395, 5396, 5397, 5389, 6520, 6521, 6522,
6514, 6516, 6523, 6524, 6517
814, 5393, 5400, 5401, 5394, 6518, 6525, 6526, 6519, 5402, 5403, 5404, 5396, 6527, 6528, 6529,
6521, 6523, 6530, 6531, 6524
815, 5400, 5407, 5408, 5401, 6525, 6532, 6533, 6526, 5409, 5410, 5411, 5403, 6534, 6535, 6536,
6528, 6530, 6537, 6538, 6531
816, 5407, 5414, 5415, 5408, 6532, 6539, 6540, 6533, 5416, 5417, 5418, 5410, 6541, 6542, 6543,
6535, 6537, 6544, 6545, 6538
817, 5414, 5421, 5422, 5415, 6539, 6546, 6547, 6540, 5423, 5424, 5425, 5417, 6548, 6549, 6550,
6542, 6544, 6551, 6552, 6545
818, 5421, 5428, 5429, 5422, 6546, 6553, 6554, 6547, 5430, 5431, 5432, 5424, 6555, 6556, 6557,
6549, 6551, 6558, 6559, 6552
819, 5428, 5435, 5436, 5429, 6553, 6560, 6561, 6554, 5437, 5438, 5439, 5431, 6562, 6563, 6564,
6556, 6558, 6565, 6566, 6559
820, 5435, 5442, 5443, 5436, 6560, 6567, 6568, 6561, 5444, 5445, 5446, 5438, 6569, 6570, 6571,
6563, 6565, 6572, 6573, 6566
821, 5442, 5449, 5450, 5443, 6567, 6574, 6575, 6568, 5451, 5452, 5453, 5445, 6576, 6577, 6578,
6570, 6572, 6579, 6580, 6573
822, 5449, 5456, 5457, 5450, 6574, 6581, 6582, 6575, 5458, 5459, 5460, 5452, 6583, 6584, 6585,
6577, 6579, 6586, 6587, 6580
823, 5456, 5463, 5464, 5457, 6581, 6588, 6589, 6582, 5465, 5466, 5467, 5459, 6590, 6591, 6592,
6584, 6586, 6593, 6594, 6587
824, 5463, 5470, 5471, 5464, 6588, 6595, 6596, 6589, 5472, 5473, 5474, 5466, 6597, 6598, 6599,
6591, 6593, 6600, 6601, 6594
825, 5470, 5477, 5478, 5471, 6595, 6602, 6603, 6596, 5479, 5480, 5481, 5473, 6604, 6605, 6606,
6598, 6600, 6607, 6608, 6601
826, 5477, 5484, 5485, 5478, 6602, 6609, 6610, 6603, 5486, 5487, 5488, 5480, 6611, 6612, 6613,
6605, 6607, 6614, 6615, 6608
827, 5484, 5491, 5492, 5485, 6609, 6616, 6617, 6610, 5493, 5494, 5495, 5487, 6618, 6619, 6620,
6612, 6614, 6621, 6622, 6615
828, 5491, 5498, 5499, 5492, 6616, 6623, 6624, 6617, 5500, 5501, 5502, 5494, 6625, 6626, 6627,
6619, 6621, 6628, 6629, 6622
829, 5498, 5505, 5506, 5499, 6623, 6630, 6631, 6624, 5507, 5508, 5509, 5501, 6632, 6633, 6634,
6626, 6628, 6635, 6636, 6629
830, 5505, 5512, 5513, 5506, 6630, 6637, 6638, 6631, 5514, 5515, 5516, 5508, 6639, 6640, 6641,
6633, 6635, 6642, 6643, 6636
831, 5512, 5519, 5520, 5513, 6637, 6644, 6645, 6638, 5521, 5522, 5523, 5515, 6646, 6647, 6648,
6640, 6642, 6649, 6650, 6643
832, 5519, 5526, 5527, 5520, 6644, 6651, 6652, 6645, 5528, 5529, 5530, 5522, 6653, 6654, 6655,
6647, 6649, 6656, 6657, 6650
833, 5526, 5533, 5534, 5527, 6651, 6658, 6659, 6652, 5535, 5536, 5537, 5529, 6660, 6661, 6662,
6654, 6656, 6663, 6664, 6657
834, 5533, 5540, 5541, 5534, 6658, 6665, 6666, 6659, 5542, 5543, 5544, 5536, 6667, 6668, 6669,
6661, 6663, 6670, 6671, 6664
835, 5540, 5547, 5548, 5541, 6665, 6672, 6673, 6666, 5549, 5550, 5551, 5543, 6674, 6675, 6676,
6668, 6670, 6677, 6678, 6671
836, 5547, 5554, 5555, 5548, 6672, 6679, 6680, 6673, 5556, 5557, 5558, 5550, 6681, 6682, 6683,
6675, 6677, 6684, 6685, 6678
837, 5554, 5561, 5562, 5555, 6679, 6686, 6687, 6680, 5563, 5564, 5565, 5557, 6688, 6689, 6690,
6682, 6684, 6691, 6692, 6685
838, 5561, 5568, 5569, 5562, 6686, 6693, 6694, 6687, 5570, 5571, 5572, 5564, 6695, 6696, 6697,
6689, 6691, 6698, 6699, 6692
839, 5568, 5575, 5576, 5569, 6693, 6700, 6701, 6694, 5577, 5578, 5579, 5571, 6702, 6703, 6704,
6696, 6698, 6705, 6706, 6699
840, 5575, 5582, 5583, 5576, 6700, 6707, 6708, 6701, 5584, 5585, 5586, 5578, 6709, 6710, 6711,
6703, 6705, 6712, 6713, 6706
841, 5582, 5589, 5590, 5583, 6707, 6714, 6715, 6708, 5591, 5592, 5593, 5585, 6716, 6717, 6718,
6710, 6712, 6719, 6720, 6713
842, 5589, 5596, 5597, 5590, 6714, 6721, 6722, 6715, 5598, 5599, 5600, 5592, 6723, 6724, 6725,
6717, 6719, 6726, 6727, 6720
843, 5596, 5603, 5604, 5597, 6721, 6728, 6729, 6722, 5605, 5606, 5607, 5599, 6730, 6731, 6732,
6724, 6726, 6733, 6734, 6727
844, 5603, 5610, 5611, 5604, 6728, 6735, 6736, 6729, 5612, 5613, 5614, 5606, 6737, 6738, 6739,
6731, 6733, 6740, 6741, 6734
845, 5610, 5617, 5618, 5611, 6735, 6742, 6743, 6736, 5619, 5620, 5621, 5613, 6744, 6745, 6746,
6738, 6740, 6747, 6748, 6741
846, 5617, 5624, 5625, 5618, 6742, 6749, 6750, 6743, 5626, 5627, 5628, 5620, 6751, 6752, 6753,
6745, 6747, 6754, 6755, 6748
847, 5624, 5631, 5632, 5625, 6749, 6756, 6757, 6750, 5633, 5634, 5635, 5627, 6758, 6759, 6760,
6752, 6754, 6761, 6762, 6755
848, 5631, 5638, 5639, 5632, 6756, 6763, 6764, 6757, 5640, 5641, 5642, 5634, 6765, 6766, 6767,
6759, 6761, 6768, 6769, 6762
849, 5638, 5645, 5646, 5639, 6763, 6770, 6771, 6764, 5647, 5648, 5649, 5641, 6772, 6773, 6774,
6766, 6768, 6775, 6776, 6769
850, 5645, 5652, 5653, 5646, 6770, 6777, 6778, 6771, 5654, 5655, 5656, 5648, 6779, 6780, 6781,
6773, 6775, 6782, 6783, 6776
851, 5652, 5659, 5660, 5653, 6777, 6784, 6785, 6778, 5661, 5662, 5663, 5655, 6786, 6787, 6788,
6780, 6782, 6789, 6790, 6783
852, 5659, 5666, 5667, 5660, 6784, 6791, 6792, 6785, 5668, 5669, 5670, 5662, 6793, 6794, 6795,
6787, 6789, 6796, 6797, 6790
853, 5666, 5673, 5674, 5667, 6791, 6798, 6799, 6792, 5675, 5676, 5677, 5669, 6800, 6801, 6802,
6794, 6796, 6803, 6804, 6797
854, 5673, 5680, 5681, 5674, 6798, 6805, 6806, 6799, 5682, 5683, 5684, 5676, 6807, 6808, 6809,
6801, 6803, 6810, 6811, 6804
855, 5680, 5687, 5688, 5681, 6805, 6812, 6813, 6806, 5689, 5690, 5691, 5683, 6814, 6815, 6816,
6808, 6810, 6817, 6818, 6811
856, 5687, 5694, 5695, 5688, 6812, 6819, 6820, 6813, 5696, 5697, 5698, 5690, 6821, 6822, 6823,
6815, 6817, 6824, 6825, 6818
857, 5694, 5701, 5702, 5695, 6819, 6826, 6827, 6820, 5703, 5704, 5705, 5697, 6828, 6829, 6830,
6822, 6824, 6831, 6832, 6825
858, 5701, 5708, 5709, 5702, 6826, 6833, 6834, 6827, 5710, 5711, 5712, 5704, 6835, 6836, 6837,
6829, 6831, 6838, 6839, 6832
859, 5708, 5715, 5716, 5709, 6833, 6840, 6841, 6834, 5717, 5718, 5719, 5711, 6842, 6843, 6844,
6836, 6838, 6845, 6846, 6839
860, 5715, 5722, 5723, 5716, 6840, 6847, 6848, 6841, 5724, 5725, 5726, 5718, 6849, 6850, 6851,
6843, 6845, 6852, 6853, 6846
861, 5722, 5729, 5730, 5723, 6847, 6854, 6855, 6848, 5731, 5732, 5733, 5725, 6856, 6857, 6858,
6850, 6852, 6859, 6860, 6853
862, 5729, 5736, 5737, 5730, 6854, 6861, 6862, 6855, 5738, 5739, 5740, 5732, 6863, 6864, 6865,
6857, 6859, 6866, 6867, 6860
863, 5736, 5743, 5744, 5737, 6861, 6868, 6869, 6862, 5745, 5746, 5747, 5739, 6870, 6871, 6872,
6864, 6866, 6873, 6874, 6867
864, 5743, 5750, 5751, 5744, 6868, 6875, 6876, 6869, 5752, 5753, 5754, 5746, 6877, 6878, 6879,
6871, 6873, 6880, 6881, 6874
865, 5750, 5757, 5758, 5751, 6875, 6882, 6883, 6876, 5759, 5760, 5761, 5753, 6884, 6885, 6886,
6878, 6880, 6887, 6888, 6881
866, 5757, 5764, 5765, 5758, 6882, 6889, 6890, 6883, 5766, 5767, 5768, 5760, 6891, 6892, 6893,
6885, 6887, 6894, 6895, 6888
867, 5764, 5771, 5772, 5765, 6889, 6896, 6897, 6890, 5773, 5774, 5775, 5767, 6898, 6899, 6900,
6892, 6894, 6901, 6902, 6895
868, 5771, 5778, 5779, 5772, 6896, 6903, 6904, 6897, 5780, 5781, 5782, 5774, 6905, 6906, 6907,
6899, 6901, 6908, 6909, 6902
869, 5778, 5785, 5786, 5779, 6903, 6910, 6911, 6904, 5787, 5788, 5789, 5781, 6912, 6913, 6914,
6906, 6908, 6915, 6916, 6909
870, 5785, 5792, 5793, 5786, 6910, 6917, 6918, 6911, 5794, 5795, 5796, 5788, 6919, 6920, 6921,
6913, 6915, 6922, 6923, 6916
871, 5792, 5799, 5800, 5793, 6917, 6924, 6925, 6918, 5801, 5802, 5803, 5795, 6926, 6927, 6928,
6920, 6922, 6929, 6930, 6923
872, 5799, 5806, 5807, 5800, 6924, 6931, 6932, 6925, 5808, 5809, 5810, 5802, 6933, 6934, 6935,
6927, 6929, 6936, 6937, 6930
873, 5806, 5813, 5814, 5807, 6931, 6938, 6939, 6932, 5815, 5816, 5817, 5809, 6940, 6941, 6942,
6934, 6936, 6943, 6944, 6937
874, 5813, 5820, 5821, 5814, 6938, 6945, 6946, 6939, 5822, 5823, 5824, 5816, 6947, 6948, 6949,
6941, 6943, 6950, 6951, 6944
875, 5820, 5827, 5828, 5821, 6945, 6952, 6953, 6946, 5829, 5830, 5831, 5823, 6954, 6955, 6956,
6948, 6950, 6957, 6958, 6951
876, 5827, 5834, 5835, 5828, 6952, 6959, 6960, 6953, 5836, 5837, 5838, 5830, 6961, 6962, 6963,
6955, 6957, 6964, 6965, 6958
877, 5834, 5841, 5842, 5835, 6959, 6966, 6967, 6960, 5843, 5844, 5845, 5837, 6968, 6969, 6970,
6962, 6964, 6971, 6972, 6965
878, 5841, 5848, 5849, 5842, 6966, 6973, 6974, 6967, 5850, 5851, 5852, 5844, 6975, 6976, 6977,
6969, 6971, 6978, 6979, 6972
879, 5848, 5855, 5856, 5849, 6973, 6980, 6981, 6974, 5857, 5858, 5859, 5851, 6982, 6983, 6984,
6976, 6978, 6985, 6986, 6979
880, 5855, 5862, 5863, 5856, 6980, 6987, 6988, 6981, 5864, 5865, 5866, 5858, 6989, 6990, 6991,
6983, 6985, 6992, 6993, 6986
881, 5862, 5869, 5870, 5863, 6987, 6994, 6995, 6988, 5871, 5872, 5873, 5865, 6996, 6997, 6998,
6990, 6992, 6999, 7000, 6993
882, 5869, 5876, 5877, 5870, 6994, 7001, 7002, 6995, 5878, 5879, 5880, 5872, 7003, 7004, 7005,
6997, 6999, 7006, 7007, 7000
883, 5876, 5883, 5884, 5877, 7001, 7008, 7009, 7002, 5885, 5886, 5887, 5879, 7010, 7011, 7012,
7004, 7006, 7013, 7014, 7007
884, 5883, 5890, 5891, 5884, 7008, 7015, 7016, 7009, 5892, 5893, 5894, 5886, 7017, 7018, 7019,
7011, 7013, 7020, 7021, 7014
885, 5890, 5897, 5898, 5891, 7015, 7022, 7023, 7016, 5899, 5900, 5901, 5893, 7024, 7025, 7026,
7018, 7020, 7027, 7028, 7021
886, 5897, 5904, 5905, 5898, 7022, 7029, 7030, 7023, 5906, 5907, 5908, 5900, 7031, 7032, 7033,
7025, 7027, 7034, 7035, 7028
887, 5904, 5911, 5912, 5905, 7029, 7036, 7037, 7030, 5913, 5914, 5915, 5907, 7038, 7039, 7040,
7032, 7034, 7041, 7042, 7035
888, 5911, 5918, 5919, 5912, 7036, 7043, 7044, 7037, 5920, 5921, 5922, 5914, 7045, 7046, 7047,
7039, 7041, 7048, 7049, 7042
889, 5918, 5925, 5926, 5919, 7043, 7050, 7051, 7044, 5927, 5928, 5929, 5921, 7052, 7053, 7054,
7046, 7048, 7055, 7056, 7049
890, 5925, 5932, 5933, 5926, 7050, 7057, 7058, 7051, 5934, 5935, 5936, 5928, 7059, 7060, 7061,
7053, 7055, 7062, 7063, 7056
891, 5932, 5939, 5940, 5933, 7057, 7064, 7065, 7058, 5941, 5942, 5943, 5935, 7066, 7067, 7068,
7060, 7062, 7069, 7070, 7063
892, 5939, 5946, 5947, 5940, 7064, 7071, 7072, 7065, 5948, 5949, 5950, 5942, 7073, 7074, 7075,
7067, 7069, 7076, 7077, 7070
893, 5946, 5953, 5954, 5947, 7071, 7078, 7079, 7072, 5955, 5956, 5957, 5949, 7080, 7081, 7082,
7074, 7076, 7083, 7084, 7077
894, 5953, 5960, 5961, 5954, 7078, 7085, 7086, 7079, 5962, 5963, 5964, 5956, 7087, 7088, 7089,
7081, 7083, 7090, 7091, 7084
895, 5960, 5967, 5968, 5961, 7085, 7092, 7093, 7086, 5969, 5970, 5971, 5963, 7094, 7095, 7096,
7088, 7090, 7097, 7098, 7091
896, 5967, 5974, 5975, 5968, 7092, 7099, 7100, 7093, 5976, 5977, 5978, 5970, 7101, 7102, 7103,
7095, 7097, 7104, 7105, 7098
897, 5974, 5981, 5982, 5975, 7099, 7106, 7107, 7100, 5983, 5984, 5985, 5977, 7108, 7109, 7110,
7102, 7104, 7111, 7112, 7105
898, 5981, 5988, 5989, 5982, 7106, 7113, 7114, 7107, 5990, 5991, 5992, 5984, 7115, 7116, 7117,
7109, 7111, 7118, 7119, 7112
899, 5988, 5995, 5996, 5989, 7113, 7120, 7121, 7114, 5997, 5998, 5999, 5991, 7122, 7123, 7124,
7116, 7118, 7125, 7126, 7119
900, 5995, 6002, 6003, 5996, 7120, 7127, 7128, 7121, 6004, 6005, 6006, 5998, 7129, 7130, 7131,
7123, 7125, 7132, 7133, 7126
901, 6002, 6009, 6010, 6003, 7127, 7134, 7135, 7128, 6011, 6012, 6013, 6005, 7136, 7137, 7138,
7130, 7132, 7139, 7140, 7133
902, 6009, 6016, 6017, 6010, 7134, 7141, 7142, 7135, 6018, 6019, 6020, 6012, 7143, 7144, 7145,
7137, 7139, 7146, 7147, 7140
903, 6016, 6023, 6024, 6017, 7141, 7148, 7149, 7142, 6025, 6026, 6027, 6019, 7150, 7151, 7152,
7144, 7146, 7153, 7154, 7147
904, 6023, 6030, 6031, 6024, 7148, 7155, 7156, 7149, 6032, 6033, 6034, 6026, 7157, 7158, 7159,
7151, 7153, 7160, 7161, 7154
905, 6030, 6037, 6038, 6031, 7155, 7162, 7163, 7156, 6039, 6040, 6041, 6033, 7164, 7165, 7166,
7158, 7160, 7167, 7168, 7161
906, 6037, 6044, 6045, 6038, 7162, 7169, 7170, 7163, 6046, 6047, 6048, 6040, 7171, 7172, 7173,
7165, 7167, 7174, 7175, 7168
907, 6044, 6051, 6052, 6045, 7169, 7176, 7177, 7170, 6053, 6054, 6055, 6047, 7178, 7179, 7180,
7172, 7174, 7181, 7182, 7175
908, 6051, 6058, 6059, 6052, 7176, 7183, 7184, 7177, 6060, 6061, 6062, 6054, 7185, 7186, 7187,
7179, 7181, 7188, 7189, 7182
909, 6058, 6065, 6066, 6059, 7183, 7190, 7191, 7184, 6067, 6068, 6069, 6061, 7192, 7193, 7194,
7186, 7188, 7195, 7196, 7189
910, 6065, 6072, 6073, 6066, 7190, 7197, 7198, 7191, 6074, 6075, 6076, 6068, 7199, 7200, 7201,
7193, 7195, 7202, 7203, 7196
911, 6072, 6079, 6080, 6073, 7197, 7204, 7205, 7198, 6081, 6082, 6083, 6075, 7206, 7207, 7208,
7200, 7202, 7209, 7210, 7203
912, 6079, 6086, 6087, 6080, 7204, 7211, 7212, 7205, 6088, 6089, 6090, 6082, 7213, 7214, 7215,
7207, 7209, 7216, 7217, 7210
913, 6086, 6093, 6094, 6087, 7211, 7218, 7219, 7212, 6095, 6096, 6097, 6089, 7220, 7221, 7222,
7214, 7216, 7223, 7224, 7217
914, 6093, 6100, 6101, 6094, 7218, 7225, 7226, 7219, 6102, 6103, 6104, 6096, 7227, 7228, 7229,
7221, 7223, 7230, 7231, 7224
915, 6100, 6107, 6108, 6101, 7225, 7232, 7233, 7226, 6109, 6110, 6111, 6103, 7234, 7235, 7236,
7228, 7230, 7237, 7238, 7231
916, 6107, 6114, 6115, 6108, 7232, 7239, 7240, 7233, 6116, 6117, 6118, 6110, 7241, 7242, 7243,
7235, 7237, 7244, 7245, 7238
917, 6114, 6121, 6122, 6115, 7239, 7246, 7247, 7240, 6123, 6124, 6125, 6117, 7248, 7249, 7250,
7242, 7244, 7251, 7252, 7245
918, 6121, 6128, 6129, 6122, 7246, 7253, 7254, 7247, 6130, 6131, 6132, 6124, 7255, 7256, 7257,
7249, 7251, 7258, 7259, 7252
919, 6128, 6135, 6136, 6129, 7253, 7260, 7261, 7254, 6137, 6138, 6139, 6131, 7262, 7263, 7264,
7256, 7258, 7265, 7266, 7259
920, 6135, 6142, 6143, 6136, 7260, 7267, 7268, 7261, 6144, 6145, 6146, 6138, 7269, 7270, 7271,
7263, 7265, 7272, 7273, 7266
921, 6142, 6149, 6150, 6143, 7267, 7274, 7275, 7268, 6151, 6152, 6153, 6145, 7276, 7277, 7278,
7270, 7272, 7279, 7280, 7273
922, 6149, 6156, 6157, 6150, 7274, 7281, 7282, 7275, 6158, 6159, 6160, 6152, 7283, 7284, 7285,
7277, 7279, 7286, 7287, 7280
923, 6156, 6163, 6164, 6157, 7281, 7288, 7289, 7282, 6165, 6166, 6167, 6159, 7290, 7291, 7292,
7284, 7286, 7293, 7294, 7287
924, 6163, 6170, 6171, 6164, 7288, 7295, 7296, 7289, 6172, 6173, 6174, 6166, 7297, 7298, 7299,
7291, 7293, 7300, 7301, 7294
925, 6170, 6177, 6178, 6171, 7295, 7302, 7303, 7296, 6179, 6180, 6181, 6173, 7304, 7305, 7306,
7298, 7300, 7307, 7308, 7301
926, 6177, 6184, 6185, 6178, 7302, 7309, 7310, 7303, 6186, 6187, 6188, 6180, 7311, 7312, 7313,
7305, 7307, 7314, 7315, 7308
927, 6184, 6191, 6192, 6185, 7309, 7316, 7317, 7310, 6193, 6194, 6195, 6187, 7318, 7319, 7320,
7312, 7314, 7321, 7322, 7315
928, 6191, 6198, 6199, 6192, 7316, 7323, 7324, 7317, 6200, 6201, 6202, 6194, 7325, 7326, 7327,
7319, 7321, 7328, 7329, 7322
929, 6198, 6205, 6206, 6199, 7323, 7330, 7331, 7324, 6207, 6208, 6209, 6201, 7332, 7333, 7334,
7326, 7328, 7335, 7336, 7329
930, 6205, 6212, 6213, 6206, 7330, 7337, 7338, 7331, 6214, 6215, 6216, 6208, 7339, 7340, 7341,
7333, 7335, 7342, 7343, 7336
931, 6212, 6219, 6220, 6213, 7337, 7344, 7345, 7338, 6221, 6222, 6223, 6215, 7346, 7347, 7348,
7340, 7342, 7349, 7350, 7343
932, 6219, 6226, 6227, 6220, 7344, 7351, 7352, 7345, 6228, 6229, 6230, 6222, 7353, 7354, 7355,
7347, 7349, 7356, 7357, 7350
933, 6226, 6233, 6234, 6227, 7351, 7358, 7359, 7352, 6235, 6236, 6237, 6229, 7360, 7361, 7362,
7354, 7356, 7363, 7364, 7357
934, 6233, 6240, 6241, 6234, 7358, 7365, 7366, 7359, 6242, 6243, 6244, 6236, 7367, 7368, 7369,
7361, 7363, 7370, 7371, 7364
935, 6240, 6247, 6248, 6241, 7365, 7372, 7373, 7366, 6249, 6250, 6251, 6243, 7374, 7375, 7376,
7368, 7370, 7377, 7378, 7371
936, 6247, 6254, 6255, 6248, 7372, 7379, 7380, 7373, 6256, 6257, 6258, 6250, 7381, 7382, 7383,
7375, 7377, 7384, 7385, 7378
937, 6254, 6261, 6262, 6255, 7379, 7386, 7387, 7380, 6263, 6264, 6265, 6257, 7388, 7389, 7390,
7382, 7384, 7391, 7392, 7385
938, 6261, 6268, 6269, 6262, 7386, 7393, 7394, 7387, 6270, 6271, 6272, 6264, 7395, 7396, 7397,
7389, 7391, 7398, 7399, 7392
939, 6268, 6275, 6276, 6269, 7393, 7400, 7401, 7394, 6277, 6278, 6279, 6271, 7402, 7403, 7404,
7396, 7398, 7405, 7406, 7399
940, 6275, 6282, 6283, 6276, 7400, 7407, 7408, 7401, 6284, 6285, 6286, 6278, 7409, 7410, 7411,
7403, 7405, 7412, 7413, 7406
941, 6282, 6289, 6290, 6283, 7407, 7414, 7415, 7408, 6291, 6292, 6293, 6285, 7416, 7417, 7418,
7410, 7412, 7419, 7420, 7413
942, 6289, 6296, 6297, 6290, 7414, 7421, 7422, 7415, 6298, 6299, 6300, 6292, 7423, 7424, 7425,
7417, 7419, 7426, 7427, 7420
943, 6296, 6303, 6304, 6297, 7421, 7428, 7429, 7422, 6305, 6306, 6307, 6299, 7430, 7431, 7432,
7424, 7426, 7433, 7434, 7427
944, 6303, 6310, 6311, 6304, 7428, 7435, 7436, 7429, 6312, 6313, 6314, 6306, 7437, 7438, 7439,
7431, 7433, 7440, 7441, 7434
945, 6310, 6317, 6318, 6311, 7435, 7442, 7443, 7436, 6319, 6320, 6321, 6313, 7444, 7445, 7446,
7438, 7440, 7447, 7448, 7441
946, 6317, 6324, 6325, 6318, 7442, 7449, 7450, 7443, 6326, 6327, 6328, 6320, 7451, 7452, 7453,
7445, 7447, 7454, 7455, 7448
947, 6324, 6331, 6332, 6325, 7449, 7456, 7457, 7450, 6333, 6334, 6335, 6327, 7458, 7459, 7460,
7452, 7454, 7461, 7462, 7455
948, 6331, 6338, 6339, 6332, 7456, 7463, 7464, 7457, 6340, 6341, 6342, 6334, 7465, 7466, 7467,
7459, 7461, 7468, 7469, 7462
949, 6338, 6345, 6346, 6339, 7463, 7470, 7471, 7464, 6347, 6348, 6349, 6341, 7472, 7473, 7474,
7466, 7468, 7475, 7476, 7469
950, 6345, 6352, 6353, 6346, 7470, 7477, 7478, 7471, 6354, 6355, 6356, 6348, 7479, 7480, 7481,
7473, 7475, 7482, 7483, 7476
951, 6352, 6359, 6360, 6353, 7477, 7484, 7485, 7478, 6361, 6362, 6363, 6355, 7486, 7487, 7488,
7480, 7482, 7489, 7490, 7483
952, 6359, 6366, 6367, 6360, 7484, 7491, 7492, 7485, 6368, 6369, 6370, 6362, 7493, 7494, 7495,
7487, 7489, 7496, 7497, 7490
953, 6366, 6373, 6374, 6367, 7491, 7498, 7499, 7492, 6375, 6376, 6377, 6369, 7500, 7501, 7502,
7494, 7496, 7503, 7504, 7497
954, 6373, 6380, 6381, 6374, 7498, 7505, 7506, 7499, 6382, 6383, 6384, 6376, 7507, 7508, 7509,
7501, 7503, 7510, 7511, 7504
955, 6380, 6387, 6388, 6381, 7505, 7512, 7513, 7506, 6389, 6390, 6391, 6383, 7514, 7515, 7516,
7508, 7510, 7517, 7518, 7511
956, 6387, 6394, 6395, 6388, 7512, 7519, 7520, 7513, 6396, 6397, 6398, 6390, 7521, 7522, 7523,
7515, 7517, 7524, 7525, 7518
957, 6394, 6401, 6402, 6395, 7519, 7526, 7527, 7520, 6403, 6404, 6405, 6397, 7528, 7529, 7530,
7522, 7524, 7531, 7532, 7525
958, 6401, 6408, 6409, 6402, 7526, 7533, 7534, 7527, 6410, 6411, 6412, 6404, 7535, 7536, 7537,
7529, 7531, 7538, 7539, 7532
959, 6408, 6415, 6416, 6409, 7533, 7540, 7541, 7534, 6417, 6418, 6419, 6411, 7542, 7543, 7544,
7536, 7538, 7545, 7546, 7539
960, 6415, 6422, 6423, 6416, 7540, 7547, 7548, 7541, 6424, 6425, 6426, 6418, 7549, 7550, 7551,
7543, 7545, 7552, 7553, 7546
961, 6429, 6430, 6431, 6432, 7554, 7555, 7556, 7557, 6433, 6434, 6435, 6436, 7558, 7559, 7560,
7561, 7562, 7563, 7564, 7565
962, 6430, 6441, 6442, 6431, 7555, 7566, 7567, 7556, 6443, 6444, 6445, 6434, 7568, 7569, 7570,
7559, 7563, 7571, 7572, 7564
963, 6441, 6448, 6449, 6442, 7566, 7573, 7574, 7567, 6450, 6451, 6452, 6444, 7575, 7576, 7577,
7569, 7571, 7578, 7579, 7572
964, 6448, 6455, 6456, 6449, 7573, 7580, 7581, 7574, 6457, 6458, 6459, 6451, 7582, 7583, 7584,
7576, 7578, 7585, 7586, 7579
965, 6455, 6462, 6463, 6456, 7580, 7587, 7588, 7581, 6464, 6465, 6466, 6458, 7589, 7590, 7591,
7583, 7585, 7592, 7593, 7586
966, 6462, 6469, 6470, 6463, 7587, 7594, 7595, 7588, 6471, 6472, 6473, 6465, 7596, 7597, 7598,
7590, 7592, 7599, 7600, 7593
967, 6469, 6476, 6477, 6470, 7594, 7601, 7602, 7595, 6478, 6479, 6480, 6472, 7603, 7604, 7605,
7597, 7599, 7606, 7607, 7600
968, 6476, 6483, 6484, 6477, 7601, 7608, 7609, 7602, 6485, 6486, 6487, 6479, 7610, 7611, 7612,
7604, 7606, 7613, 7614, 7607
969, 6483, 6490, 6491, 6484, 7608, 7615, 7616, 7609, 6492, 6493, 6494, 6486, 7617, 7618, 7619,
7611, 7613, 7620, 7621, 7614
970, 6490, 6497, 6498, 6491, 7615, 7622, 7623, 7616, 6499, 6500, 6501, 6493, 7624, 7625, 7626,
7618, 7620, 7627, 7628, 7621
971, 6497, 6504, 6505, 6498, 7622, 7629, 7630, 7623, 6506, 6507, 6508, 6500, 7631, 7632, 7633,
7625, 7627, 7634, 7635, 7628
972, 6504, 6511, 6512, 6505, 7629, 7636, 7637, 7630, 6513, 6514, 6515, 6507, 7638, 7639, 7640,
7632, 7634, 7641, 7642, 7635
973, 6511, 6518, 6519, 6512, 7636, 7643, 7644, 7637, 6520, 6521, 6522, 6514, 7645, 7646, 7647,
7639, 7641, 7648, 7649, 7642
974, 6518, 6525, 6526, 6519, 7643, 7650, 7651, 7644, 6527, 6528, 6529, 6521, 7652, 7653, 7654,
7646, 7648, 7655, 7656, 7649
975, 6525, 6532, 6533, 6526, 7650, 7657, 7658, 7651, 6534, 6535, 6536, 6528, 7659, 7660, 7661,
7653, 7655, 7662, 7663, 7656
976, 6532, 6539, 6540, 6533, 7657, 7664, 7665, 7658, 6541, 6542, 6543, 6535, 7666, 7667, 7668,
7660, 7662, 7669, 7670, 7663
977, 6539, 6546, 6547, 6540, 7664, 7671, 7672, 7665, 6548, 6549, 6550, 6542, 7673, 7674, 7675,
7667, 7669, 7676, 7677, 7670
978, 6546, 6553, 6554, 6547, 7671, 7678, 7679, 7672, 6555, 6556, 6557, 6549, 7680, 7681, 7682,
7674, 7676, 7683, 7684, 7677
979, 6553, 6560, 6561, 6554, 7678, 7685, 7686, 7679, 6562, 6563, 6564, 6556, 7687, 7688, 7689,
7681, 7683, 7690, 7691, 7684
980, 6560, 6567, 6568, 6561, 7685, 7692, 7693, 7686, 6569, 6570, 6571, 6563, 7694, 7695, 7696,
7688, 7690, 7697, 7698, 7691
981, 6567, 6574, 6575, 6568, 7692, 7699, 7700, 7693, 6576, 6577, 6578, 6570, 7701, 7702, 7703,
7695, 7697, 7704, 7705, 7698
982, 6574, 6581, 6582, 6575, 7699, 7706, 7707, 7700, 6583, 6584, 6585, 6577, 7708, 7709, 7710,
7702, 7704, 7711, 7712, 7705
983, 6581, 6588, 6589, 6582, 7706, 7713, 7714, 7707, 6590, 6591, 6592, 6584, 7715, 7716, 7717,
7709, 7711, 7718, 7719, 7712
984, 6588, 6595, 6596, 6589, 7713, 7720, 7721, 7714, 6597, 6598, 6599, 6591, 7722, 7723, 7724,
7716, 7718, 7725, 7726, 7719
985, 6595, 6602, 6603, 6596, 7720, 7727, 7728, 7721, 6604, 6605, 6606, 6598, 7729, 7730, 7731,
7723, 7725, 7732, 7733, 7726
986, 6602, 6609, 6610, 6603, 7727, 7734, 7735, 7728, 6611, 6612, 6613, 6605, 7736, 7737, 7738,
7730, 7732, 7739, 7740, 7733
987, 6609, 6616, 6617, 6610, 7734, 7741, 7742, 7735, 6618, 6619, 6620, 6612, 7743, 7744, 7745,
7737, 7739, 7746, 7747, 7740
988, 6616, 6623, 6624, 6617, 7741, 7748, 7749, 7742, 6625, 6626, 6627, 6619, 7750, 7751, 7752,
7744, 7746, 7753, 7754, 7747
989, 6623, 6630, 6631, 6624, 7748, 7755, 7756, 7749, 6632, 6633, 6634, 6626, 7757, 7758, 7759,
7751, 7753, 7760, 7761, 7754
990, 6630, 6637, 6638, 6631, 7755, 7762, 7763, 7756, 6639, 6640, 6641, 6633, 7764, 7765, 7766,
7758, 7760, 7767, 7768, 7761
991, 6637, 6644, 6645, 6638, 7762, 7769, 7770, 7763, 6646, 6647, 6648, 6640, 7771, 7772, 7773,
7765, 7767, 7774, 7775, 7768
992, 6644, 6651, 6652, 6645, 7769, 7776, 7777, 7770, 6653, 6654, 6655, 6647, 7778, 7779, 7780,
7772, 7774, 7781, 7782, 7775
993, 6651, 6658, 6659, 6652, 7776, 7783, 7784, 7777, 6660, 6661, 6662, 6654, 7785, 7786, 7787,
7779, 7781, 7788, 7789, 7782
994, 6658, 6665, 6666, 6659, 7783, 7790, 7791, 7784, 6667, 6668, 6669, 6661, 7792, 7793, 7794,
7786, 7788, 7795, 7796, 7789
995, 6665, 6672, 6673, 6666, 7790, 7797, 7798, 7791, 6674, 6675, 6676, 6668, 7799, 7800, 7801,
7793, 7795, 7802, 7803, 7796
996, 6672, 6679, 6680, 6673, 7797, 7804, 7805, 7798, 6681, 6682, 6683, 6675, 7806, 7807, 7808,
7800, 7802, 7809, 7810, 7803
997, 6679, 6686, 6687, 6680, 7804, 7811, 7812, 7805, 6688, 6689, 6690, 6682, 7813, 7814, 7815,
7807, 7809, 7816, 7817, 7810
998, 6686, 6693, 6694, 6687, 7811, 7818, 7819, 7812, 6695, 6696, 6697, 6689, 7820, 7821, 7822,
7814, 7816, 7823, 7824, 7817
999, 6693, 6700, 6701, 6694, 7818, 7825, 7826, 7819, 6702, 6703, 6704, 6696, 7827, 7828, 7829,
7821, 7823, 7830, 7831, 7824
1000, 6700, 6707, 6708, 6701, 7825, 7832, 7833, 7826, 6709, 6710, 6711, 6703, 7834, 7835, 7836,
7828, 7830, 7837, 7838, 7831
1001, 6707, 6714, 6715, 6708, 7832, 7839, 7840, 7833, 6716, 6717, 6718, 6710, 7841, 7842, 7843,
7835, 7837, 7844, 7845, 7838
1002, 6714, 6721, 6722, 6715, 7839, 7846, 7847, 7840, 6723, 6724, 6725, 6717, 7848, 7849, 7850,
7842, 7844, 7851, 7852, 7845
1003, 6721, 6728, 6729, 6722, 7846, 7853, 7854, 7847, 6730, 6731, 6732, 6724, 7855, 7856, 7857,
7849, 7851, 7858, 7859, 7852
1004, 6728, 6735, 6736, 6729, 7853, 7860, 7861, 7854, 6737, 6738, 6739, 6731, 7862, 7863, 7864,
7856, 7858, 7865, 7866, 7859
1005, 6735, 6742, 6743, 6736, 7860, 7867, 7868, 7861, 6744, 6745, 6746, 6738, 7869, 7870, 7871,
7863, 7865, 7872, 7873, 7866
1006, 6742, 6749, 6750, 6743, 7867, 7874, 7875, 7868, 6751, 6752, 6753, 6745, 7876, 7877, 7878,
7870, 7872, 7879, 7880, 7873
1007, 6749, 6756, 6757, 6750, 7874, 7881, 7882, 7875, 6758, 6759, 6760, 6752, 7883, 7884, 7885,
7877, 7879, 7886, 7887, 7880
1008, 6756, 6763, 6764, 6757, 7881, 7888, 7889, 7882, 6765, 6766, 6767, 6759, 7890, 7891, 7892,
7884, 7886, 7893, 7894, 7887
1009, 6763, 6770, 6771, 6764, 7888, 7895, 7896, 7889, 6772, 6773, 6774, 6766, 7897, 7898, 7899,
7891, 7893, 7900, 7901, 7894
1010, 6770, 6777, 6778, 6771, 7895, 7902, 7903, 7896, 6779, 6780, 6781, 6773, 7904, 7905, 7906,
7898, 7900, 7907, 7908, 7901
1011, 6777, 6784, 6785, 6778, 7902, 7909, 7910, 7903, 6786, 6787, 6788, 6780, 7911, 7912, 7913,
7905, 7907, 7914, 7915, 7908
1012, 6784, 6791, 6792, 6785, 7909, 7916, 7917, 7910, 6793, 6794, 6795, 6787, 7918, 7919, 7920,
7912, 7914, 7921, 7922, 7915
1013, 6791, 6798, 6799, 6792, 7916, 7923, 7924, 7917, 6800, 6801, 6802, 6794, 7925, 7926, 7927,
7919, 7921, 7928, 7929, 7922
1014, 6798, 6805, 6806, 6799, 7923, 7930, 7931, 7924, 6807, 6808, 6809, 6801, 7932, 7933, 7934,
7926, 7928, 7935, 7936, 7929
1015, 6805, 6812, 6813, 6806, 7930, 7937, 7938, 7931, 6814, 6815, 6816, 6808, 7939, 7940, 7941,
7933, 7935, 7942, 7943, 7936
1016, 6812, 6819, 6820, 6813, 7937, 7944, 7945, 7938, 6821, 6822, 6823, 6815, 7946, 7947, 7948,
7940, 7942, 7949, 7950, 7943
1017, 6819, 6826, 6827, 6820, 7944, 7951, 7952, 7945, 6828, 6829, 6830, 6822, 7953, 7954, 7955,
7947, 7949, 7956, 7957, 7950
1018, 6826, 6833, 6834, 6827, 7951, 7958, 7959, 7952, 6835, 6836, 6837, 6829, 7960, 7961, 7962,
7954, 7956, 7963, 7964, 7957
1019, 6833, 6840, 6841, 6834, 7958, 7965, 7966, 7959, 6842, 6843, 6844, 6836, 7967, 7968, 7969,
7961, 7963, 7970, 7971, 7964
1020, 6840, 6847, 6848, 6841, 7965, 7972, 7973, 7966, 6849, 6850, 6851, 6843, 7974, 7975, 7976,
7968, 7970, 7977, 7978, 7971
1021, 6847, 6854, 6855, 6848, 7972, 7979, 7980, 7973, 6856, 6857, 6858, 6850, 7981, 7982, 7983,
7975, 7977, 7984, 7985, 7978
1022, 6854, 6861, 6862, 6855, 7979, 7986, 7987, 7980, 6863, 6864, 6865, 6857, 7988, 7989, 7990,
7982, 7984, 7991, 7992, 7985
1023, 6861, 6868, 6869, 6862, 7986, 7993, 7994, 7987, 6870, 6871, 6872, 6864, 7995, 7996, 7997,
7989, 7991, 7998, 7999, 7992
1024, 6868, 6875, 6876, 6869, 7993, 8000, 8001, 7994, 6877, 6878, 6879, 6871, 8002, 8003, 8004,
7996, 7998, 8005, 8006, 7999
1025, 6875, 6882, 6883, 6876, 8000, 8007, 8008, 8001, 6884, 6885, 6886, 6878, 8009, 8010, 8011,
8003, 8005, 8012, 8013, 8006
1026, 6882, 6889, 6890, 6883, 8007, 8014, 8015, 8008, 6891, 6892, 6893, 6885, 8016, 8017, 8018,
8010, 8012, 8019, 8020, 8013
1027, 6889, 6896, 6897, 6890, 8014, 8021, 8022, 8015, 6898, 6899, 6900, 6892, 8023, 8024, 8025,
8017, 8019, 8026, 8027, 8020
1028, 6896, 6903, 6904, 6897, 8021, 8028, 8029, 8022, 6905, 6906, 6907, 6899, 8030, 8031, 8032,
8024, 8026, 8033, 8034, 8027
1029, 6903, 6910, 6911, 6904, 8028, 8035, 8036, 8029, 6912, 6913, 6914, 6906, 8037, 8038, 8039,
8031, 8033, 8040, 8041, 8034
1030, 6910, 6917, 6918, 6911, 8035, 8042, 8043, 8036, 6919, 6920, 6921, 6913, 8044, 8045, 8046,
8038, 8040, 8047, 8048, 8041
1031, 6917, 6924, 6925, 6918, 8042, 8049, 8050, 8043, 6926, 6927, 6928, 6920, 8051, 8052, 8053,
8045, 8047, 8054, 8055, 8048
1032, 6924, 6931, 6932, 6925, 8049, 8056, 8057, 8050, 6933, 6934, 6935, 6927, 8058, 8059, 8060,
8052, 8054, 8061, 8062, 8055
1033, 6931, 6938, 6939, 6932, 8056, 8063, 8064, 8057, 6940, 6941, 6942, 6934, 8065, 8066, 8067,
8059, 8061, 8068, 8069, 8062
1034, 6938, 6945, 6946, 6939, 8063, 8070, 8071, 8064, 6947, 6948, 6949, 6941, 8072, 8073, 8074,
8066, 8068, 8075, 8076, 8069
1035, 6945, 6952, 6953, 6946, 8070, 8077, 8078, 8071, 6954, 6955, 6956, 6948, 8079, 8080, 8081,
8073, 8075, 8082, 8083, 8076
1036, 6952, 6959, 6960, 6953, 8077, 8084, 8085, 8078, 6961, 6962, 6963, 6955, 8086, 8087, 8088,
8080, 8082, 8089, 8090, 8083
1037, 6959, 6966, 6967, 6960, 8084, 8091, 8092, 8085, 6968, 6969, 6970, 6962, 8093, 8094, 8095,
8087, 8089, 8096, 8097, 8090
1038, 6966, 6973, 6974, 6967, 8091, 8098, 8099, 8092, 6975, 6976, 6977, 6969, 8100, 8101, 8102,
8094, 8096, 8103, 8104, 8097
1039, 6973, 6980, 6981, 6974, 8098, 8105, 8106, 8099, 6982, 6983, 6984, 6976, 8107, 8108, 8109,
8101, 8103, 8110, 8111, 8104
1040, 6980, 6987, 6988, 6981, 8105, 8112, 8113, 8106, 6989, 6990, 6991, 6983, 8114, 8115, 8116,
8108, 8110, 8117, 8118, 8111
1041, 6987, 6994, 6995, 6988, 8112, 8119, 8120, 8113, 6996, 6997, 6998, 6990, 8121, 8122, 8123,
8115, 8117, 8124, 8125, 8118
1042, 6994, 7001, 7002, 6995, 8119, 8126, 8127, 8120, 7003, 7004, 7005, 6997, 8128, 8129, 8130,
8122, 8124, 8131, 8132, 8125
1043, 7001, 7008, 7009, 7002, 8126, 8133, 8134, 8127, 7010, 7011, 7012, 7004, 8135, 8136, 8137,
8129, 8131, 8138, 8139, 8132
1044, 7008, 7015, 7016, 7009, 8133, 8140, 8141, 8134, 7017, 7018, 7019, 7011, 8142, 8143, 8144,
8136, 8138, 8145, 8146, 8139
1045, 7015, 7022, 7023, 7016, 8140, 8147, 8148, 8141, 7024, 7025, 7026, 7018, 8149, 8150, 8151,
8143, 8145, 8152, 8153, 8146
1046, 7022, 7029, 7030, 7023, 8147, 8154, 8155, 8148, 7031, 7032, 7033, 7025, 8156, 8157, 8158,
8150, 8152, 8159, 8160, 8153
1047, 7029, 7036, 7037, 7030, 8154, 8161, 8162, 8155, 7038, 7039, 7040, 7032, 8163, 8164, 8165,
8157, 8159, 8166, 8167, 8160
1048, 7036, 7043, 7044, 7037, 8161, 8168, 8169, 8162, 7045, 7046, 7047, 7039, 8170, 8171, 8172,
8164, 8166, 8173, 8174, 8167
1049, 7043, 7050, 7051, 7044, 8168, 8175, 8176, 8169, 7052, 7053, 7054, 7046, 8177, 8178, 8179,
8171, 8173, 8180, 8181, 8174
1050, 7050, 7057, 7058, 7051, 8175, 8182, 8183, 8176, 7059, 7060, 7061, 7053, 8184, 8185, 8186,
8178, 8180, 8187, 8188, 8181
1051, 7057, 7064, 7065, 7058, 8182, 8189, 8190, 8183, 7066, 7067, 7068, 7060, 8191, 8192, 8193,
8185, 8187, 8194, 8195, 8188
1052, 7064, 7071, 7072, 7065, 8189, 8196, 8197, 8190, 7073, 7074, 7075, 7067, 8198, 8199, 8200,
8192, 8194, 8201, 8202, 8195
1053, 7071, 7078, 7079, 7072, 8196, 8203, 8204, 8197, 7080, 7081, 7082, 7074, 8205, 8206, 8207,
8199, 8201, 8208, 8209, 8202
1054, 7078, 7085, 7086, 7079, 8203, 8210, 8211, 8204, 7087, 7088, 7089, 7081, 8212, 8213, 8214,
8206, 8208, 8215, 8216, 8209
1055, 7085, 7092, 7093, 7086, 8210, 8217, 8218, 8211, 7094, 7095, 7096, 7088, 8219, 8220, 8221,
8213, 8215, 8222, 8223, 8216
1056, 7092, 7099, 7100, 7093, 8217, 8224, 8225, 8218, 7101, 7102, 7103, 7095, 8226, 8227, 8228,
8220, 8222, 8229, 8230, 8223
1057, 7099, 7106, 7107, 7100, 8224, 8231, 8232, 8225, 7108, 7109, 7110, 7102, 8233, 8234, 8235,
8227, 8229, 8236, 8237, 8230
1058, 7106, 7113, 7114, 7107, 8231, 8238, 8239, 8232, 7115, 7116, 7117, 7109, 8240, 8241, 8242,
8234, 8236, 8243, 8244, 8237
1059, 7113, 7120, 7121, 7114, 8238, 8245, 8246, 8239, 7122, 7123, 7124, 7116, 8247, 8248, 8249,
8241, 8243, 8250, 8251, 8244
1060, 7120, 7127, 7128, 7121, 8245, 8252, 8253, 8246, 7129, 7130, 7131, 7123, 8254, 8255, 8256,
8248, 8250, 8257, 8258, 8251
1061, 7127, 7134, 7135, 7128, 8252, 8259, 8260, 8253, 7136, 7137, 7138, 7130, 8261, 8262, 8263,
8255, 8257, 8264, 8265, 8258
1062, 7134, 7141, 7142, 7135, 8259, 8266, 8267, 8260, 7143, 7144, 7145, 7137, 8268, 8269, 8270,
8262, 8264, 8271, 8272, 8265
1063, 7141, 7148, 7149, 7142, 8266, 8273, 8274, 8267, 7150, 7151, 7152, 7144, 8275, 8276, 8277,
8269, 8271, 8278, 8279, 8272
1064, 7148, 7155, 7156, 7149, 8273, 8280, 8281, 8274, 7157, 7158, 7159, 7151, 8282, 8283, 8284,
8276, 8278, 8285, 8286, 8279
1065, 7155, 7162, 7163, 7156, 8280, 8287, 8288, 8281, 7164, 7165, 7166, 7158, 8289, 8290, 8291,
8283, 8285, 8292, 8293, 8286
1066, 7162, 7169, 7170, 7163, 8287, 8294, 8295, 8288, 7171, 7172, 7173, 7165, 8296, 8297, 8298,
8290, 8292, 8299, 8300, 8293
1067, 7169, 7176, 7177, 7170, 8294, 8301, 8302, 8295, 7178, 7179, 7180, 7172, 8303, 8304, 8305,
8297, 8299, 8306, 8307, 8300
1068, 7176, 7183, 7184, 7177, 8301, 8308, 8309, 8302, 7185, 7186, 7187, 7179, 8310, 8311, 8312,
8304, 8306, 8313, 8314, 8307
1069, 7183, 7190, 7191, 7184, 8308, 8315, 8316, 8309, 7192, 7193, 7194, 7186, 8317, 8318, 8319,
8311, 8313, 8320, 8321, 8314
1070, 7190, 7197, 7198, 7191, 8315, 8322, 8323, 8316, 7199, 7200, 7201, 7193, 8324, 8325, 8326,
8318, 8320, 8327, 8328, 8321
1071, 7197, 7204, 7205, 7198, 8322, 8329, 8330, 8323, 7206, 7207, 7208, 7200, 8331, 8332, 8333,
8325, 8327, 8334, 8335, 8328
1072, 7204, 7211, 7212, 7205, 8329, 8336, 8337, 8330, 7213, 7214, 7215, 7207, 8338, 8339, 8340,
8332, 8334, 8341, 8342, 8335
1073, 7211, 7218, 7219, 7212, 8336, 8343, 8344, 8337, 7220, 7221, 7222, 7214, 8345, 8346, 8347,
8339, 8341, 8348, 8349, 8342
1074, 7218, 7225, 7226, 7219, 8343, 8350, 8351, 8344, 7227, 7228, 7229, 7221, 8352, 8353, 8354,
8346, 8348, 8355, 8356, 8349
1075, 7225, 7232, 7233, 7226, 8350, 8357, 8358, 8351, 7234, 7235, 7236, 7228, 8359, 8360, 8361,
8353, 8355, 8362, 8363, 8356
1076, 7232, 7239, 7240, 7233, 8357, 8364, 8365, 8358, 7241, 7242, 7243, 7235, 8366, 8367, 8368,
8360, 8362, 8369, 8370, 8363
1077, 7239, 7246, 7247, 7240, 8364, 8371, 8372, 8365, 7248, 7249, 7250, 7242, 8373, 8374, 8375,
8367, 8369, 8376, 8377, 8370
1078, 7246, 7253, 7254, 7247, 8371, 8378, 8379, 8372, 7255, 7256, 7257, 7249, 8380, 8381, 8382,
8374, 8376, 8383, 8384, 8377
1079, 7253, 7260, 7261, 7254, 8378, 8385, 8386, 8379, 7262, 7263, 7264, 7256, 8387, 8388, 8389,
8381, 8383, 8390, 8391, 8384
1080, 7260, 7267, 7268, 7261, 8385, 8392, 8393, 8386, 7269, 7270, 7271, 7263, 8394, 8395, 8396,
8388, 8390, 8397, 8398, 8391
1081, 7267, 7274, 7275, 7268, 8392, 8399, 8400, 8393, 7276, 7277, 7278, 7270, 8401, 8402, 8403,
8395, 8397, 8404, 8405, 8398
1082, 7274, 7281, 7282, 7275, 8399, 8406, 8407, 8400, 7283, 7284, 7285, 7277, 8408, 8409, 8410,
8402, 8404, 8411, 8412, 8405
1083, 7281, 7288, 7289, 7282, 8406, 8413, 8414, 8407, 7290, 7291, 7292, 7284, 8415, 8416, 8417,
8409, 8411, 8418, 8419, 8412
1084, 7288, 7295, 7296, 7289, 8413, 8420, 8421, 8414, 7297, 7298, 7299, 7291, 8422, 8423, 8424,
8416, 8418, 8425, 8426, 8419
1085, 7295, 7302, 7303, 7296, 8420, 8427, 8428, 8421, 7304, 7305, 7306, 7298, 8429, 8430, 8431,
8423, 8425, 8432, 8433, 8426
1086, 7302, 7309, 7310, 7303, 8427, 8434, 8435, 8428, 7311, 7312, 7313, 7305, 8436, 8437, 8438,
8430, 8432, 8439, 8440, 8433
1087, 7309, 7316, 7317, 7310, 8434, 8441, 8442, 8435, 7318, 7319, 7320, 7312, 8443, 8444, 8445,
8437, 8439, 8446, 8447, 8440
1088, 7316, 7323, 7324, 7317, 8441, 8448, 8449, 8442, 7325, 7326, 7327, 7319, 8450, 8451, 8452,
8444, 8446, 8453, 8454, 8447
1089, 7323, 7330, 7331, 7324, 8448, 8455, 8456, 8449, 7332, 7333, 7334, 7326, 8457, 8458, 8459,
8451, 8453, 8460, 8461, 8454
1090, 7330, 7337, 7338, 7331, 8455, 8462, 8463, 8456, 7339, 7340, 7341, 7333, 8464, 8465, 8466,
8458, 8460, 8467, 8468, 8461
1091, 7337, 7344, 7345, 7338, 8462, 8469, 8470, 8463, 7346, 7347, 7348, 7340, 8471, 8472, 8473,
8465, 8467, 8474, 8475, 8468
1092, 7344, 7351, 7352, 7345, 8469, 8476, 8477, 8470, 7353, 7354, 7355, 7347, 8478, 8479, 8480,
8472, 8474, 8481, 8482, 8475
1093, 7351, 7358, 7359, 7352, 8476, 8483, 8484, 8477, 7360, 7361, 7362, 7354, 8485, 8486, 8487,
8479, 8481, 8488, 8489, 8482
1094, 7358, 7365, 7366, 7359, 8483, 8490, 8491, 8484, 7367, 7368, 7369, 7361, 8492, 8493, 8494,
8486, 8488, 8495, 8496, 8489
1095, 7365, 7372, 7373, 7366, 8490, 8497, 8498, 8491, 7374, 7375, 7376, 7368, 8499, 8500, 8501,
8493, 8495, 8502, 8503, 8496
1096, 7372, 7379, 7380, 7373, 8497, 8504, 8505, 8498, 7381, 7382, 7383, 7375, 8506, 8507, 8508,
8500, 8502, 8509, 8510, 8503
1097, 7379, 7386, 7387, 7380, 8504, 8511, 8512, 8505, 7388, 7389, 7390, 7382, 8513, 8514, 8515,
8507, 8509, 8516, 8517, 8510
1098, 7386, 7393, 7394, 7387, 8511, 8518, 8519, 8512, 7395, 7396, 7397, 7389, 8520, 8521, 8522,
8514, 8516, 8523, 8524, 8517
1099, 7393, 7400, 7401, 7394, 8518, 8525, 8526, 8519, 7402, 7403, 7404, 7396, 8527, 8528, 8529,
8521, 8523, 8530, 8531, 8524
1100, 7400, 7407, 7408, 7401, 8525, 8532, 8533, 8526, 7409, 7410, 7411, 7403, 8534, 8535, 8536,
8528, 8530, 8537, 8538, 8531
1101, 7407, 7414, 7415, 7408, 8532, 8539, 8540, 8533, 7416, 7417, 7418, 7410, 8541, 8542, 8543,
8535, 8537, 8544, 8545, 8538
1102, 7414, 7421, 7422, 7415, 8539, 8546, 8547, 8540, 7423, 7424, 7425, 7417, 8548, 8549, 8550,
8542, 8544, 8551, 8552, 8545
1103, 7421, 7428, 7429, 7422, 8546, 8553, 8554, 8547, 7430, 7431, 7432, 7424, 8555, 8556, 8557,
8549, 8551, 8558, 8559, 8552
1104, 7428, 7435, 7436, 7429, 8553, 8560, 8561, 8554, 7437, 7438, 7439, 7431, 8562, 8563, 8564,
8556, 8558, 8565, 8566, 8559
1105, 7435, 7442, 7443, 7436, 8560, 8567, 8568, 8561, 7444, 7445, 7446, 7438, 8569, 8570, 8571,
8563, 8565, 8572, 8573, 8566
1106, 7442, 7449, 7450, 7443, 8567, 8574, 8575, 8568, 7451, 7452, 7453, 7445, 8576, 8577, 8578,
8570, 8572, 8579, 8580, 8573
1107, 7449, 7456, 7457, 7450, 8574, 8581, 8582, 8575, 7458, 7459, 7460, 7452, 8583, 8584, 8585,
8577, 8579, 8586, 8587, 8580
1108, 7456, 7463, 7464, 7457, 8581, 8588, 8589, 8582, 7465, 7466, 7467, 7459, 8590, 8591, 8592,
8584, 8586, 8593, 8594, 8587
1109, 7463, 7470, 7471, 7464, 8588, 8595, 8596, 8589, 7472, 7473, 7474, 7466, 8597, 8598, 8599,
8591, 8593, 8600, 8601, 8594
1110, 7470, 7477, 7478, 7471, 8595, 8602, 8603, 8596, 7479, 7480, 7481, 7473, 8604, 8605, 8606,
8598, 8600, 8607, 8608, 8601
1111, 7477, 7484, 7485, 7478, 8602, 8609, 8610, 8603, 7486, 7487, 7488, 7480, 8611, 8612, 8613,
8605, 8607, 8614, 8615, 8608
1112, 7484, 7491, 7492, 7485, 8609, 8616, 8617, 8610, 7493, 7494, 7495, 7487, 8618, 8619, 8620,
8612, 8614, 8621, 8622, 8615
1113, 7491, 7498, 7499, 7492, 8616, 8623, 8624, 8617, 7500, 7501, 7502, 7494, 8625, 8626, 8627,
8619, 8621, 8628, 8629, 8622
1114, 7498, 7505, 7506, 7499, 8623, 8630, 8631, 8624, 7507, 7508, 7509, 7501, 8632, 8633, 8634,
8626, 8628, 8635, 8636, 8629
1115, 7505, 7512, 7513, 7506, 8630, 8637, 8638, 8631, 7514, 7515, 7516, 7508, 8639, 8640, 8641,
8633, 8635, 8642, 8643, 8636
1116, 7512, 7519, 7520, 7513, 8637, 8644, 8645, 8638, 7521, 7522, 7523, 7515, 8646, 8647, 8648,
8640, 8642, 8649, 8650, 8643
1117, 7519, 7526, 7527, 7520, 8644, 8651, 8652, 8645, 7528, 7529, 7530, 7522, 8653, 8654, 8655,
8647, 8649, 8656, 8657, 8650
1118, 7526, 7533, 7534, 7527, 8651, 8658, 8659, 8652, 7535, 7536, 7537, 7529, 8660, 8661, 8662,
8654, 8656, 8663, 8664, 8657
1119, 7533, 7540, 7541, 7534, 8658, 8665, 8666, 8659, 7542, 7543, 7544, 7536, 8667, 8668, 8669,
8661, 8663, 8670, 8671, 8664
1120, 7540, 7547, 7548, 7541, 8665, 8672, 8673, 8666, 7549, 7550, 7551, 7543, 8674, 8675, 8676,
8668, 8670, 8677, 8678, 8671
1121, 7554, 7555, 7556, 7557, 8679, 8680, 8681, 8682, 7558, 7559, 7560, 7561, 8683, 8684, 8685,
8686, 8687, 8688, 8689, 8690
1122, 7555, 7566, 7567, 7556, 8680, 8691, 8692, 8681, 7568, 7569, 7570, 7559, 8693, 8694, 8695,
8684, 8688, 8696, 8697, 8689
1123, 7566, 7573, 7574, 7567, 8691, 8698, 8699, 8692, 7575, 7576, 7577, 7569, 8700, 8701, 8702,
8694, 8696, 8703, 8704, 8697
1124, 7573, 7580, 7581, 7574, 8698, 8705, 8706, 8699, 7582, 7583, 7584, 7576, 8707, 8708, 8709,
8701, 8703, 8710, 8711, 8704
1125, 7580, 7587, 7588, 7581, 8705, 8712, 8713, 8706, 7589, 7590, 7591, 7583, 8714, 8715, 8716,
8708, 8710, 8717, 8718, 8711
1126, 7587, 7594, 7595, 7588, 8712, 8719, 8720, 8713, 7596, 7597, 7598, 7590, 8721, 8722, 8723,
8715, 8717, 8724, 8725, 8718
1127, 7594, 7601, 7602, 7595, 8719, 8726, 8727, 8720, 7603, 7604, 7605, 7597, 8728, 8729, 8730,
8722, 8724, 8731, 8732, 8725
1128, 7601, 7608, 7609, 7602, 8726, 8733, 8734, 8727, 7610, 7611, 7612, 7604, 8735, 8736, 8737,
8729, 8731, 8738, 8739, 8732
1129, 7608, 7615, 7616, 7609, 8733, 8740, 8741, 8734, 7617, 7618, 7619, 7611, 8742, 8743, 8744,
8736, 8738, 8745, 8746, 8739
1130, 7615, 7622, 7623, 7616, 8740, 8747, 8748, 8741, 7624, 7625, 7626, 7618, 8749, 8750, 8751,
8743, 8745, 8752, 8753, 8746
1131, 7622, 7629, 7630, 7623, 8747, 8754, 8755, 8748, 7631, 7632, 7633, 7625, 8756, 8757, 8758,
8750, 8752, 8759, 8760, 8753
1132, 7629, 7636, 7637, 7630, 8754, 8761, 8762, 8755, 7638, 7639, 7640, 7632, 8763, 8764, 8765,
8757, 8759, 8766, 8767, 8760
1133, 7636, 7643, 7644, 7637, 8761, 8768, 8769, 8762, 7645, 7646, 7647, 7639, 8770, 8771, 8772,
8764, 8766, 8773, 8774, 8767
1134, 7643, 7650, 7651, 7644, 8768, 8775, 8776, 8769, 7652, 7653, 7654, 7646, 8777, 8778, 8779,
8771, 8773, 8780, 8781, 8774
1135, 7650, 7657, 7658, 7651, 8775, 8782, 8783, 8776, 7659, 7660, 7661, 7653, 8784, 8785, 8786,
8778, 8780, 8787, 8788, 8781
1136, 7657, 7664, 7665, 7658, 8782, 8789, 8790, 8783, 7666, 7667, 7668, 7660, 8791, 8792, 8793,
8785, 8787, 8794, 8795, 8788
1137, 7664, 7671, 7672, 7665, 8789, 8796, 8797, 8790, 7673, 7674, 7675, 7667, 8798, 8799, 8800,
8792, 8794, 8801, 8802, 8795
1138, 7671, 7678, 7679, 7672, 8796, 8803, 8804, 8797, 7680, 7681, 7682, 7674, 8805, 8806, 8807,
8799, 8801, 8808, 8809, 8802
1139, 7678, 7685, 7686, 7679, 8803, 8810, 8811, 8804, 7687, 7688, 7689, 7681, 8812, 8813, 8814,
8806, 8808, 8815, 8816, 8809
1140, 7685, 7692, 7693, 7686, 8810, 8817, 8818, 8811, 7694, 7695, 7696, 7688, 8819, 8820, 8821,
8813, 8815, 8822, 8823, 8816
1141, 7692, 7699, 7700, 7693, 8817, 8824, 8825, 8818, 7701, 7702, 7703, 7695, 8826, 8827, 8828,
8820, 8822, 8829, 8830, 8823
1142, 7699, 7706, 7707, 7700, 8824, 8831, 8832, 8825, 7708, 7709, 7710, 7702, 8833, 8834, 8835,
8827, 8829, 8836, 8837, 8830
1143, 7706, 7713, 7714, 7707, 8831, 8838, 8839, 8832, 7715, 7716, 7717, 7709, 8840, 8841, 8842,
8834, 8836, 8843, 8844, 8837
1144, 7713, 7720, 7721, 7714, 8838, 8845, 8846, 8839, 7722, 7723, 7724, 7716, 8847, 8848, 8849,
8841, 8843, 8850, 8851, 8844
1145, 7720, 7727, 7728, 7721, 8845, 8852, 8853, 8846, 7729, 7730, 7731, 7723, 8854, 8855, 8856,
8848, 8850, 8857, 8858, 8851
1146, 7727, 7734, 7735, 7728, 8852, 8859, 8860, 8853, 7736, 7737, 7738, 7730, 8861, 8862, 8863,
8855, 8857, 8864, 8865, 8858
1147, 7734, 7741, 7742, 7735, 8859, 8866, 8867, 8860, 7743, 7744, 7745, 7737, 8868, 8869, 8870,
8862, 8864, 8871, 8872, 8865
1148, 7741, 7748, 7749, 7742, 8866, 8873, 8874, 8867, 7750, 7751, 7752, 7744, 8875, 8876, 8877,
8869, 8871, 8878, 8879, 8872
1149, 7748, 7755, 7756, 7749, 8873, 8880, 8881, 8874, 7757, 7758, 7759, 7751, 8882, 8883, 8884,
8876, 8878, 8885, 8886, 8879
1150, 7755, 7762, 7763, 7756, 8880, 8887, 8888, 8881, 7764, 7765, 7766, 7758, 8889, 8890, 8891,
8883, 8885, 8892, 8893, 8886
1151, 7762, 7769, 7770, 7763, 8887, 8894, 8895, 8888, 7771, 7772, 7773, 7765, 8896, 8897, 8898,
8890, 8892, 8899, 8900, 8893
1152, 7769, 7776, 7777, 7770, 8894, 8901, 8902, 8895, 7778, 7779, 7780, 7772, 8903, 8904, 8905,
8897, 8899, 8906, 8907, 8900
1153, 7776, 7783, 7784, 7777, 8901, 8908, 8909, 8902, 7785, 7786, 7787, 7779, 8910, 8911, 8912,
8904, 8906, 8913, 8914, 8907
1154, 7783, 7790, 7791, 7784, 8908, 8915, 8916, 8909, 7792, 7793, 7794, 7786, 8917, 8918, 8919,
8911, 8913, 8920, 8921, 8914
1155, 7790, 7797, 7798, 7791, 8915, 8922, 8923, 8916, 7799, 7800, 7801, 7793, 8924, 8925, 8926,
8918, 8920, 8927, 8928, 8921
1156, 7797, 7804, 7805, 7798, 8922, 8929, 8930, 8923, 7806, 7807, 7808, 7800, 8931, 8932, 8933,
8925, 8927, 8934, 8935, 8928
1157, 7804, 7811, 7812, 7805, 8929, 8936, 8937, 8930, 7813, 7814, 7815, 7807, 8938, 8939, 8940,
8932, 8934, 8941, 8942, 8935
1158, 7811, 7818, 7819, 7812, 8936, 8943, 8944, 8937, 7820, 7821, 7822, 7814, 8945, 8946, 8947,
8939, 8941, 8948, 8949, 8942
1159, 7818, 7825, 7826, 7819, 8943, 8950, 8951, 8944, 7827, 7828, 7829, 7821, 8952, 8953, 8954,
8946, 8948, 8955, 8956, 8949
1160, 7825, 7832, 7833, 7826, 8950, 8957, 8958, 8951, 7834, 7835, 7836, 7828, 8959, 8960, 8961,
8953, 8955, 8962, 8963, 8956
1161, 7832, 7839, 7840, 7833, 8957, 8964, 8965, 8958, 7841, 7842, 7843, 7835, 8966, 8967, 8968,
8960, 8962, 8969, 8970, 8963
1162, 7839, 7846, 7847, 7840, 8964, 8971, 8972, 8965, 7848, 7849, 7850, 7842, 8973, 8974, 8975,
8967, 8969, 8976, 8977, 8970
1163, 7846, 7853, 7854, 7847, 8971, 8978, 8979, 8972, 7855, 7856, 7857, 7849, 8980, 8981, 8982,
8974, 8976, 8983, 8984, 8977
1164, 7853, 7860, 7861, 7854, 8978, 8985, 8986, 8979, 7862, 7863, 7864, 7856, 8987, 8988, 8989,
8981, 8983, 8990, 8991, 8984
1165, 7860, 7867, 7868, 7861, 8985, 8992, 8993, 8986, 7869, 7870, 7871, 7863, 8994, 8995, 8996,
8988, 8990, 8997, 8998, 8991
1166, 7867, 7874, 7875, 7868, 8992, 8999, 9000, 8993, 7876, 7877, 7878, 7870, 9001, 9002, 9003,
8995, 8997, 9004, 9005, 8998
1167, 7874, 7881, 7882, 7875, 8999, 9006, 9007, 9000, 7883, 7884, 7885, 7877, 9008, 9009, 9010,
9002, 9004, 9011, 9012, 9005
1168, 7881, 7888, 7889, 7882, 9006, 9013, 9014, 9007, 7890, 7891, 7892, 7884, 9015, 9016, 9017,
9009, 9011, 9018, 9019, 9012
1169, 7888, 7895, 7896, 7889, 9013, 9020, 9021, 9014, 7897, 7898, 7899, 7891, 9022, 9023, 9024,
9016, 9018, 9025, 9026, 9019
1170, 7895, 7902, 7903, 7896, 9020, 9027, 9028, 9021, 7904, 7905, 7906, 7898, 9029, 9030, 9031,
9023, 9025, 9032, 9033, 9026
1171, 7902, 7909, 7910, 7903, 9027, 9034, 9035, 9028, 7911, 7912, 7913, 7905, 9036, 9037, 9038,
9030, 9032, 9039, 9040, 9033
1172, 7909, 7916, 7917, 7910, 9034, 9041, 9042, 9035, 7918, 7919, 7920, 7912, 9043, 9044, 9045,
9037, 9039, 9046, 9047, 9040
1173, 7916, 7923, 7924, 7917, 9041, 9048, 9049, 9042, 7925, 7926, 7927, 7919, 9050, 9051, 9052,
9044, 9046, 9053, 9054, 9047
1174, 7923, 7930, 7931, 7924, 9048, 9055, 9056, 9049, 7932, 7933, 7934, 7926, 9057, 9058, 9059,
9051, 9053, 9060, 9061, 9054
1175, 7930, 7937, 7938, 7931, 9055, 9062, 9063, 9056, 7939, 7940, 7941, 7933, 9064, 9065, 9066,
9058, 9060, 9067, 9068, 9061
1176, 7937, 7944, 7945, 7938, 9062, 9069, 9070, 9063, 7946, 7947, 7948, 7940, 9071, 9072, 9073,
9065, 9067, 9074, 9075, 9068
1177, 7944, 7951, 7952, 7945, 9069, 9076, 9077, 9070, 7953, 7954, 7955, 7947, 9078, 9079, 9080,
9072, 9074, 9081, 9082, 9075
1178, 7951, 7958, 7959, 7952, 9076, 9083, 9084, 9077, 7960, 7961, 7962, 7954, 9085, 9086, 9087,
9079, 9081, 9088, 9089, 9082
1179, 7958, 7965, 7966, 7959, 9083, 9090, 9091, 9084, 7967, 7968, 7969, 7961, 9092, 9093, 9094,
9086, 9088, 9095, 9096, 9089
1180, 7965, 7972, 7973, 7966, 9090, 9097, 9098, 9091, 7974, 7975, 7976, 7968, 9099, 9100, 9101,
9093, 9095, 9102, 9103, 9096
1181, 7972, 7979, 7980, 7973, 9097, 9104, 9105, 9098, 7981, 7982, 7983, 7975, 9106, 9107, 9108,
9100, 9102, 9109, 9110, 9103
1182, 7979, 7986, 7987, 7980, 9104, 9111, 9112, 9105, 7988, 7989, 7990, 7982, 9113, 9114, 9115,
9107, 9109, 9116, 9117, 9110
1183, 7986, 7993, 7994, 7987, 9111, 9118, 9119, 9112, 7995, 7996, 7997, 7989, 9120, 9121, 9122,
9114, 9116, 9123, 9124, 9117
1184, 7993, 8000, 8001, 7994, 9118, 9125, 9126, 9119, 8002, 8003, 8004, 7996, 9127, 9128, 9129,
9121, 9123, 9130, 9131, 9124
1185, 8000, 8007, 8008, 8001, 9125, 9132, 9133, 9126, 8009, 8010, 8011, 8003, 9134, 9135, 9136,
9128, 9130, 9137, 9138, 9131
1186, 8007, 8014, 8015, 8008, 9132, 9139, 9140, 9133, 8016, 8017, 8018, 8010, 9141, 9142, 9143,
9135, 9137, 9144, 9145, 9138
1187, 8014, 8021, 8022, 8015, 9139, 9146, 9147, 9140, 8023, 8024, 8025, 8017, 9148, 9149, 9150,
9142, 9144, 9151, 9152, 9145
1188, 8021, 8028, 8029, 8022, 9146, 9153, 9154, 9147, 8030, 8031, 8032, 8024, 9155, 9156, 9157,
9149, 9151, 9158, 9159, 9152
1189, 8028, 8035, 8036, 8029, 9153, 9160, 9161, 9154, 8037, 8038, 8039, 8031, 9162, 9163, 9164,
9156, 9158, 9165, 9166, 9159
1190, 8035, 8042, 8043, 8036, 9160, 9167, 9168, 9161, 8044, 8045, 8046, 8038, 9169, 9170, 9171,
9163, 9165, 9172, 9173, 9166
1191, 8042, 8049, 8050, 8043, 9167, 9174, 9175, 9168, 8051, 8052, 8053, 8045, 9176, 9177, 9178,
9170, 9172, 9179, 9180, 9173
1192, 8049, 8056, 8057, 8050, 9174, 9181, 9182, 9175, 8058, 8059, 8060, 8052, 9183, 9184, 9185,
9177, 9179, 9186, 9187, 9180
1193, 8056, 8063, 8064, 8057, 9181, 9188, 9189, 9182, 8065, 8066, 8067, 8059, 9190, 9191, 9192,
9184, 9186, 9193, 9194, 9187
1194, 8063, 8070, 8071, 8064, 9188, 9195, 9196, 9189, 8072, 8073, 8074, 8066, 9197, 9198, 9199,
9191, 9193, 9200, 9201, 9194
1195, 8070, 8077, 8078, 8071, 9195, 9202, 9203, 9196, 8079, 8080, 8081, 8073, 9204, 9205, 9206,
9198, 9200, 9207, 9208, 9201
1196, 8077, 8084, 8085, 8078, 9202, 9209, 9210, 9203, 8086, 8087, 8088, 8080, 9211, 9212, 9213,
9205, 9207, 9214, 9215, 9208
1197, 8084, 8091, 8092, 8085, 9209, 9216, 9217, 9210, 8093, 8094, 8095, 8087, 9218, 9219, 9220,
9212, 9214, 9221, 9222, 9215
1198, 8091, 8098, 8099, 8092, 9216, 9223, 9224, 9217, 8100, 8101, 8102, 8094, 9225, 9226, 9227,
9219, 9221, 9228, 9229, 9222
1199, 8098, 8105, 8106, 8099, 9223, 9230, 9231, 9224, 8107, 8108, 8109, 8101, 9232, 9233, 9234,
9226, 9228, 9235, 9236, 9229
1200, 8105, 8112, 8113, 8106, 9230, 9237, 9238, 9231, 8114, 8115, 8116, 8108, 9239, 9240, 9241,
9233, 9235, 9242, 9243, 9236
1201, 8112, 8119, 8120, 8113, 9237, 9244, 9245, 9238, 8121, 8122, 8123, 8115, 9246, 9247, 9248,
9240, 9242, 9249, 9250, 9243
1202, 8119, 8126, 8127, 8120, 9244, 9251, 9252, 9245, 8128, 8129, 8130, 8122, 9253, 9254, 9255,
9247, 9249, 9256, 9257, 9250
1203, 8126, 8133, 8134, 8127, 9251, 9258, 9259, 9252, 8135, 8136, 8137, 8129, 9260, 9261, 9262,
9254, 9256, 9263, 9264, 9257
1204, 8133, 8140, 8141, 8134, 9258, 9265, 9266, 9259, 8142, 8143, 8144, 8136, 9267, 9268, 9269,
9261, 9263, 9270, 9271, 9264
1205, 8140, 8147, 8148, 8141, 9265, 9272, 9273, 9266, 8149, 8150, 8151, 8143, 9274, 9275, 9276,
9268, 9270, 9277, 9278, 9271
1206, 8147, 8154, 8155, 8148, 9272, 9279, 9280, 9273, 8156, 8157, 8158, 8150, 9281, 9282, 9283,
9275, 9277, 9284, 9285, 9278
1207, 8154, 8161, 8162, 8155, 9279, 9286, 9287, 9280, 8163, 8164, 8165, 8157, 9288, 9289, 9290,
9282, 9284, 9291, 9292, 9285
1208, 8161, 8168, 8169, 8162, 9286, 9293, 9294, 9287, 8170, 8171, 8172, 8164, 9295, 9296, 9297,
9289, 9291, 9298, 9299, 9292
1209, 8168, 8175, 8176, 8169, 9293, 9300, 9301, 9294, 8177, 8178, 8179, 8171, 9302, 9303, 9304,
9296, 9298, 9305, 9306, 9299
1210, 8175, 8182, 8183, 8176, 9300, 9307, 9308, 9301, 8184, 8185, 8186, 8178, 9309, 9310, 9311,
9303, 9305, 9312, 9313, 9306
1211, 8182, 8189, 8190, 8183, 9307, 9314, 9315, 9308, 8191, 8192, 8193, 8185, 9316, 9317, 9318,
9310, 9312, 9319, 9320, 9313
1212, 8189, 8196, 8197, 8190, 9314, 9321, 9322, 9315, 8198, 8199, 8200, 8192, 9323, 9324, 9325,
9317, 9319, 9326, 9327, 9320
1213, 8196, 8203, 8204, 8197, 9321, 9328, 9329, 9322, 8205, 8206, 8207, 8199, 9330, 9331, 9332,
9324, 9326, 9333, 9334, 9327
1214, 8203, 8210, 8211, 8204, 9328, 9335, 9336, 9329, 8212, 8213, 8214, 8206, 9337, 9338, 9339,
9331, 9333, 9340, 9341, 9334
1215, 8210, 8217, 8218, 8211, 9335, 9342, 9343, 9336, 8219, 8220, 8221, 8213, 9344, 9345, 9346,
9338, 9340, 9347, 9348, 9341
1216, 8217, 8224, 8225, 8218, 9342, 9349, 9350, 9343, 8226, 8227, 8228, 8220, 9351, 9352, 9353,
9345, 9347, 9354, 9355, 9348
1217, 8224, 8231, 8232, 8225, 9349, 9356, 9357, 9350, 8233, 8234, 8235, 8227, 9358, 9359, 9360,
9352, 9354, 9361, 9362, 9355
1218, 8231, 8238, 8239, 8232, 9356, 9363, 9364, 9357, 8240, 8241, 8242, 8234, 9365, 9366, 9367,
9359, 9361, 9368, 9369, 9362
1219, 8238, 8245, 8246, 8239, 9363, 9370, 9371, 9364, 8247, 8248, 8249, 8241, 9372, 9373, 9374,
9366, 9368, 9375, 9376, 9369
1220, 8245, 8252, 8253, 8246, 9370, 9377, 9378, 9371, 8254, 8255, 8256, 8248, 9379, 9380, 9381,
9373, 9375, 9382, 9383, 9376
1221, 8252, 8259, 8260, 8253, 9377, 9384, 9385, 9378, 8261, 8262, 8263, 8255, 9386, 9387, 9388,
9380, 9382, 9389, 9390, 9383
1222, 8259, 8266, 8267, 8260, 9384, 9391, 9392, 9385, 8268, 8269, 8270, 8262, 9393, 9394, 9395,
9387, 9389, 9396, 9397, 9390
1223, 8266, 8273, 8274, 8267, 9391, 9398, 9399, 9392, 8275, 8276, 8277, 8269, 9400, 9401, 9402,
9394, 9396, 9403, 9404, 9397
1224, 8273, 8280, 8281, 8274, 9398, 9405, 9406, 9399, 8282, 8283, 8284, 8276, 9407, 9408, 9409,
9401, 9403, 9410, 9411, 9404
1225, 8280, 8287, 8288, 8281, 9405, 9412, 9413, 9406, 8289, 8290, 8291, 8283, 9414, 9415, 9416,
9408, 9410, 9417, 9418, 9411
1226, 8287, 8294, 8295, 8288, 9412, 9419, 9420, 9413, 8296, 8297, 8298, 8290, 9421, 9422, 9423,
9415, 9417, 9424, 9425, 9418
1227, 8294, 8301, 8302, 8295, 9419, 9426, 9427, 9420, 8303, 8304, 8305, 8297, 9428, 9429, 9430,
9422, 9424, 9431, 9432, 9425
1228, 8301, 8308, 8309, 8302, 9426, 9433, 9434, 9427, 8310, 8311, 8312, 8304, 9435, 9436, 9437,
9429, 9431, 9438, 9439, 9432
1229, 8308, 8315, 8316, 8309, 9433, 9440, 9441, 9434, 8317, 8318, 8319, 8311, 9442, 9443, 9444,
9436, 9438, 9445, 9446, 9439
1230, 8315, 8322, 8323, 8316, 9440, 9447, 9448, 9441, 8324, 8325, 8326, 8318, 9449, 9450, 9451,
9443, 9445, 9452, 9453, 9446
1231, 8322, 8329, 8330, 8323, 9447, 9454, 9455, 9448, 8331, 8332, 8333, 8325, 9456, 9457, 9458,
9450, 9452, 9459, 9460, 9453
1232, 8329, 8336, 8337, 8330, 9454, 9461, 9462, 9455, 8338, 8339, 8340, 8332, 9463, 9464, 9465,
9457, 9459, 9466, 9467, 9460
1233, 8336, 8343, 8344, 8337, 9461, 9468, 9469, 9462, 8345, 8346, 8347, 8339, 9470, 9471, 9472,
9464, 9466, 9473, 9474, 9467
1234, 8343, 8350, 8351, 8344, 9468, 9475, 9476, 9469, 8352, 8353, 8354, 8346, 9477, 9478, 9479,
9471, 9473, 9480, 9481, 9474
1235, 8350, 8357, 8358, 8351, 9475, 9482, 9483, 9476, 8359, 8360, 8361, 8353, 9484, 9485, 9486,
9478, 9480, 9487, 9488, 9481
1236, 8357, 8364, 8365, 8358, 9482, 9489, 9490, 9483, 8366, 8367, 8368, 8360, 9491, 9492, 9493,
9485, 9487, 9494, 9495, 9488
1237, 8364, 8371, 8372, 8365, 9489, 9496, 9497, 9490, 8373, 8374, 8375, 8367, 9498, 9499, 9500,
9492, 9494, 9501, 9502, 9495
1238, 8371, 8378, 8379, 8372, 9496, 9503, 9504, 9497, 8380, 8381, 8382, 8374, 9505, 9506, 9507,
9499, 9501, 9508, 9509, 9502
1239, 8378, 8385, 8386, 8379, 9503, 9510, 9511, 9504, 8387, 8388, 8389, 8381, 9512, 9513, 9514,
9506, 9508, 9515, 9516, 9509
1240, 8385, 8392, 8393, 8386, 9510, 9517, 9518, 9511, 8394, 8395, 8396, 8388, 9519, 9520, 9521,
9513, 9515, 9522, 9523, 9516
1241, 8392, 8399, 8400, 8393, 9517, 9524, 9525, 9518, 8401, 8402, 8403, 8395, 9526, 9527, 9528,
9520, 9522, 9529, 9530, 9523
1242, 8399, 8406, 8407, 8400, 9524, 9531, 9532, 9525, 8408, 8409, 8410, 8402, 9533, 9534, 9535,
9527, 9529, 9536, 9537, 9530
1243, 8406, 8413, 8414, 8407, 9531, 9538, 9539, 9532, 8415, 8416, 8417, 8409, 9540, 9541, 9542,
9534, 9536, 9543, 9544, 9537
1244, 8413, 8420, 8421, 8414, 9538, 9545, 9546, 9539, 8422, 8423, 8424, 8416, 9547, 9548, 9549,
9541, 9543, 9550, 9551, 9544
1245, 8420, 8427, 8428, 8421, 9545, 9552, 9553, 9546, 8429, 8430, 8431, 8423, 9554, 9555, 9556,
9548, 9550, 9557, 9558, 9551
1246, 8427, 8434, 8435, 8428, 9552, 9559, 9560, 9553, 8436, 8437, 8438, 8430, 9561, 9562, 9563,
9555, 9557, 9564, 9565, 9558
1247, 8434, 8441, 8442, 8435, 9559, 9566, 9567, 9560, 8443, 8444, 8445, 8437, 9568, 9569, 9570,
9562, 9564, 9571, 9572, 9565
1248, 8441, 8448, 8449, 8442, 9566, 9573, 9574, 9567, 8450, 8451, 8452, 8444, 9575, 9576, 9577,
9569, 9571, 9578, 9579, 9572
1249, 8448, 8455, 8456, 8449, 9573, 9580, 9581, 9574, 8457, 8458, 8459, 8451, 9582, 9583, 9584,
9576, 9578, 9585, 9586, 9579
1250, 8455, 8462, 8463, 8456, 9580, 9587, 9588, 9581, 8464, 8465, 8466, 8458, 9589, 9590, 9591,
9583, 9585, 9592, 9593, 9586
1251, 8462, 8469, 8470, 8463, 9587, 9594, 9595, 9588, 8471, 8472, 8473, 8465, 9596, 9597, 9598,
9590, 9592, 9599, 9600, 9593
1252, 8469, 8476, 8477, 8470, 9594, 9601, 9602, 9595, 8478, 8479, 8480, 8472, 9603, 9604, 9605,
9597, 9599, 9606, 9607, 9600
1253, 8476, 8483, 8484, 8477, 9601, 9608, 9609, 9602, 8485, 8486, 8487, 8479, 9610, 9611, 9612,
9604, 9606, 9613, 9614, 9607
1254, 8483, 8490, 8491, 8484, 9608, 9615, 9616, 9609, 8492, 8493, 8494, 8486, 9617, 9618, 9619,
9611, 9613, 9620, 9621, 9614
1255, 8490, 8497, 8498, 8491, 9615, 9622, 9623, 9616, 8499, 8500, 8501, 8493, 9624, 9625, 9626,
9618, 9620, 9627, 9628, 9621
1256, 8497, 8504, 8505, 8498, 9622, 9629, 9630, 9623, 8506, 8507, 8508, 8500, 9631, 9632, 9633,
9625, 9627, 9634, 9635, 9628
1257, 8504, 8511, 8512, 8505, 9629, 9636, 9637, 9630, 8513, 8514, 8515, 8507, 9638, 9639, 9640,
9632, 9634, 9641, 9642, 9635
1258, 8511, 8518, 8519, 8512, 9636, 9643, 9644, 9637, 8520, 8521, 8522, 8514, 9645, 9646, 9647,
9639, 9641, 9648, 9649, 9642
1259, 8518, 8525, 8526, 8519, 9643, 9650, 9651, 9644, 8527, 8528, 8529, 8521, 9652, 9653, 9654,
9646, 9648, 9655, 9656, 9649
1260, 8525, 8532, 8533, 8526, 9650, 9657, 9658, 9651, 8534, 8535, 8536, 8528, 9659, 9660, 9661,
9653, 9655, 9662, 9663, 9656
1261, 8532, 8539, 8540, 8533, 9657, 9664, 9665, 9658, 8541, 8542, 8543, 8535, 9666, 9667, 9668,
9660, 9662, 9669, 9670, 9663
1262, 8539, 8546, 8547, 8540, 9664, 9671, 9672, 9665, 8548, 8549, 8550, 8542, 9673, 9674, 9675,
9667, 9669, 9676, 9677, 9670
1263, 8546, 8553, 8554, 8547, 9671, 9678, 9679, 9672, 8555, 8556, 8557, 8549, 9680, 9681, 9682,
9674, 9676, 9683, 9684, 9677
1264, 8553, 8560, 8561, 8554, 9678, 9685, 9686, 9679, 8562, 8563, 8564, 8556, 9687, 9688, 9689,
9681, 9683, 9690, 9691, 9684
1265, 8560, 8567, 8568, 8561, 9685, 9692, 9693, 9686, 8569, 8570, 8571, 8563, 9694, 9695, 9696,
9688, 9690, 9697, 9698, 9691
1266, 8567, 8574, 8575, 8568, 9692, 9699, 9700, 9693, 8576, 8577, 8578, 8570, 9701, 9702, 9703,
9695, 9697, 9704, 9705, 9698
1267, 8574, 8581, 8582, 8575, 9699, 9706, 9707, 9700, 8583, 8584, 8585, 8577, 9708, 9709, 9710,
9702, 9704, 9711, 9712, 9705
1268, 8581, 8588, 8589, 8582, 9706, 9713, 9714, 9707, 8590, 8591, 8592, 8584, 9715, 9716, 9717,
9709, 9711, 9718, 9719, 9712
1269, 8588, 8595, 8596, 8589, 9713, 9720, 9721, 9714, 8597, 8598, 8599, 8591, 9722, 9723, 9724,
9716, 9718, 9725, 9726, 9719
1270, 8595, 8602, 8603, 8596, 9720, 9727, 9728, 9721, 8604, 8605, 8606, 8598, 9729, 9730, 9731,
9723, 9725, 9732, 9733, 9726
1271, 8602, 8609, 8610, 8603, 9727, 9734, 9735, 9728, 8611, 8612, 8613, 8605, 9736, 9737, 9738,
9730, 9732, 9739, 9740, 9733
1272, 8609, 8616, 8617, 8610, 9734, 9741, 9742, 9735, 8618, 8619, 8620, 8612, 9743, 9744, 9745,
9737, 9739, 9746, 9747, 9740
1273, 8616, 8623, 8624, 8617, 9741, 9748, 9749, 9742, 8625, 8626, 8627, 8619, 9750, 9751, 9752,
9744, 9746, 9753, 9754, 9747
1274, 8623, 8630, 8631, 8624, 9748, 9755, 9756, 9749, 8632, 8633, 8634, 8626, 9757, 9758, 9759,
9751, 9753, 9760, 9761, 9754
1275, 8630, 8637, 8638, 8631, 9755, 9762, 9763, 9756, 8639, 8640, 8641, 8633, 9764, 9765, 9766,
9758, 9760, 9767, 9768, 9761
1276, 8637, 8644, 8645, 8638, 9762, 9769, 9770, 9763, 8646, 8647, 8648, 8640, 9771, 9772, 9773,
9765, 9767, 9774, 9775, 9768
1277, 8644, 8651, 8652, 8645, 9769, 9776, 9777, 9770, 8653, 8654, 8655, 8647, 9778, 9779, 9780,
9772, 9774, 9781, 9782, 9775
1278, 8651, 8658, 8659, 8652, 9776, 9783, 9784, 9777, 8660, 8661, 8662, 8654, 9785, 9786, 9787,
9779, 9781, 9788, 9789, 9782
1279, 8658, 8665, 8666, 8659, 9783, 9790, 9791, 9784, 8667, 8668, 8669, 8661, 9792, 9793, 9794,
9786, 9788, 9795, 9796, 9789
1280, 8665, 8672, 8673, 8666, 9790, 9797, 9798, 9791, 8674, 8675, 8676, 8668, 9799, 9800, 9801,
9793, 9795, 9802, 9803, 9796
*ELEMENT, TYPE=C3D8, ELSET=TOOL
1281, 9804, 9805, 10006, 10005, 10206, 10207, 10408, 10407
1282, 9805, 9806, 10007, 10006, 10207, 10208, 10409, 10408
1283, 9806, 9807, 10008, 10007, 10208, 10209, 10410, 10409
1284, 9807, 9808, 10009, 10008, 10209, 10210, 10411, 10410
1285, 9808, 9809, 10010, 10009, 10210, 10211, 10412, 10411
1286, 9809, 9810, 10011, 10010, 10211, 10212, 10413, 10412
1287, 9810, 9811, 10012, 10011, 10212, 10213, 10414, 10413
1288, 9811, 9812, 10013, 10012, 10213, 10214, 10415, 10414
1289, 9812, 9813, 10014, 10013, 10214, 10215, 10416, 10415
1290, 9813, 9814, 10015, 10014, 10215, 10216, 10417, 10416
1291, 9814, 9815, 10016, 10015, 10216, 10217, 10418, 10417
1292, 9815, 9816, 10017, 10016, 10217, 10218, 10419, 10418
1293, 9816, 9817, 10018, 10017, 10218, 10219, 10420, 10419
1294, 9817, 9818, 10019, 10018, 10219, 10220, 10421, 10420
1295, 9818, 9819, 10020, 10019, 10220, 10221, 10422, 10421
1296, 9819, 9820, 10021, 10020, 10221, 10222, 10423, 10422
1297, 9820, 9821, 10022, 10021, 10222, 10223, 10424, 10423
1298, 9821, 9822, 10023, 10022, 10223, 10224, 10425, 10424
1299, 9822, 9823, 10024, 10023, 10224, 10225, 10426, 10425
1300, 9823, 9824, 10025, 10024, 10225, 10226, 10427, 10426
1301, 9824, 9825, 10026, 10025, 10226, 10227, 10428, 10427
1302, 9825, 9826, 10027, 10026, 10227, 10228, 10429, 10428
1303, 9826, 9827, 10028, 10027, 10228, 10229, 10430, 10429
1304, 9827, 9828, 10029, 10028, 10229, 10230, 10431, 10430
1305, 9828, 9829, 10030, 10029, 10230, 10231, 10432, 10431
1306, 9829, 9830, 10031, 10030, 10231, 10232, 10433, 10432
1307, 9830, 9831, 10032, 10031, 10232, 10233, 10434, 10433
1308, 9831, 9832, 10033, 10032, 10233, 10234, 10435, 10434
1309, 9832, 9833, 10034, 10033, 10234, 10235, 10436, 10435
1310, 9833, 9834, 10035, 10034, 10235, 10236, 10437, 10436
1311, 9834, 9835, 10036, 10035, 10236, 10237, 10438, 10437
1312, 9835, 9836, 10037, 10036, 10237, 10238, 10439, 10438
1313, 9836, 9837, 10038, 10037, 10238, 10239, 10440, 10439
1314, 9837, 9838, 10039, 10038, 10239, 10240, 10441, 10440
1315, 9838, 9839, 10040, 10039, 10240, 10241, 10442, 10441
1316, 9839, 9840, 10041, 10040, 10241, 10242, 10443, 10442
1317, 9840, 9841, 10042, 10041, 10242, 10243, 10444, 10443
1318, 9841, 9842, 10043, 10042, 10243, 10244, 10445, 10444
1319, 9842, 9843, 10044, 10043, 10244, 10245, 10446, 10445
1320, 9843, 9844, 10045, 10044, 10245, 10246, 10447, 10446
1321, 9844, 9845, 10046, 10045, 10246, 10247, 10448, 10447
1322, 9845, 9846, 10047, 10046, 10247, 10248, 10449, 10448
1323, 9846, 9847, 10048, 10047, 10248, 10249, 10450, 10449
1324, 9847, 9848, 10049, 10048, 10249, 10250, 10451, 10450
1325, 9848, 9849, 10050, 10049, 10250, 10251, 10452, 10451
1326, 9849, 9850, 10051, 10050, 10251, 10252, 10453, 10452
1327, 9850, 9851, 10052, 10051, 10252, 10253, 10454, 10453
1328, 9851, 9852, 10053, 10052, 10253, 10254, 10455, 10454
1329, 9852, 9853, 10054, 10053, 10254, 10255, 10456, 10455
1330, 9853, 9854, 10055, 10054, 10255, 10256, 10457, 10456
1331, 9854, 9855, 10056, 10055, 10256, 10257, 10458, 10457
1332, 9855, 9856, 10057, 10056, 10257, 10258, 10459, 10458
1333, 9856, 9857, 10058, 10057, 10258, 10259, 10460, 10459
1334, 9857, 9858, 10059, 10058, 10259, 10260, 10461, 10460
1335, 9858, 9859, 10060, 10059, 10260, 10261, 10462, 10461
1336, 9859, 9860, 10061, 10060, 10261, 10262, 10463, 10462
1337, 9860, 9861, 10062, 10061, 10262, 10263, 10464, 10463
1338, 9861, 9862, 10063, 10062, 10263, 10264, 10465, 10464
1339, 9862, 9863, 10064, 10063, 10264, 10265, 10466, 10465
1340, 9863, 9864, 10065, 10064, 10265, 10266, 10467, 10466
1341, 9864, 9865, 10066, 10065, 10266, 10267, 10468, 10467
1342, 9865, 9866, 10067, 10066, 10267, 10268, 10469, 10468
1343, 9866, 9867, 10068, 10067, 10268, 10269, 10470, 10469
1344, 9867, 9868, 10069, 10068, 10269, 10270, 10471, 10470
1345, 9868, 9869, 10070, 10069, 10270, 10271, 10472, 10471
1346, 9869, 9870, 10071, 10070, 10271, 10272, 10473, 10472
1347, 9870, 9871, 10072, 10071, 10272, 10273, 10474, 10473
1348, 9871, 9872, 10073, 10072, 10273, 10274, 10475, 10474
1349, 9872, 9873, 10074, 10073, 10274, 10275, 10476, 10475
1350, 9873, 9874, 10075, 10074, 10275, 10276, 10477, 10476
1351, 9874, 9875, 10076, 10075, 10276, 10277, 10478, 10477
1352, 9875, 9876, 10077, 10076, 10277, 10278, 10479, 10478
1353, 9876, 9877, 10078, 10077, 10278, 10279, 10480, 10479
1354, 9877, 9878, 10079, 10078, 10279, 10280, 10481, 10480
1355, 9878, 9879, 10080, 10079, 10280, 10281, 10482, 10481
1356, 9879, 9880, 10081, 10080, 10281, 10282, 10483, 10482
1357, 9880, 9881, 10082, 10081, 10282, 10283, 10484, 10483
1358, 9881, 9882, 10083, 10082, 10283, 10284, 10485, 10484
1359, 9882, 9883, 10084, 10083, 10284, 10285, 10486, 10485
1360, 9883, 9884, 10085, 10084, 10285, 10286, 10487, 10486
1361, 9884, 9885, 10086, 10085, 10286, 10287, 10488, 10487
1362, 9885, 9886, 10087, 10086, 10287, 10288, 10489, 10488
1363, 9886, 9887, 10088, 10087, 10288, 10289, 10490, 10489
1364, 9887, 9888, 10089, 10088, 10289, 10290, 10491, 10490
1365, 9888, 9889, 10090, 10089, 10290, 10291, 10492, 10491
1366, 9889, 9890, 10091, 10090, 10291, 10292, 10493, 10492
1367, 9890, 9891, 10092, 10091, 10292, 10293, 10494, 10493
1368, 9891, 9892, 10093, 10092, 10293, 10294, 10495, 10494
1369, 9892, 9893, 10094, 10093, 10294, 10295, 10496, 10495
1370, 9893, 9894, 10095, 10094, 10295, 10296, 10497, 10496
1371, 9894, 9895, 10096, 10095, 10296, 10297, 10498, 10497
1372, 9895, 9896, 10097, 10096, 10297, 10298, 10499, 10498
1373, 9896, 9897, 10098, 10097, 10298, 10299, 10500, 10499
1374, 9897, 9898, 10099, 10098, 10299, 10300, 10501, 10500
1375, 9898, 9899, 10100, 10099, 10300, 10301, 10502, 10501
1376, 9899, 9900, 10101, 10100, 10301, 10302, 10503, 10502
1377, 9900, 9901, 10102, 10101, 10302, 10303, 10504, 10503
1378, 9901, 9902, 10103, 10102, 10303, 10304, 10505, 10504
1379, 9902, 9903, 10104, 10103, 10304, 10305, 10506, 10505
1380, 9903, 9904, 10105, 10104, 10305, 10306, 10507, 10506
1381, 9904, 9905, 10106, 10105, 10306, 10307, 10508, 10507
1382, 9905, 9906, 10107, 10106, 10307, 10308, 10509, 10508
1383, 9906, 9907, 10108, 10107, 10308, 10309, 10510, 10509
1384, 9907, 9908, 10109, 10108, 10309, 10310, 10511, 10510
1385, 9908, 9909, 10110, 10109, 10310, 10311, 10512, 10511
1386, 9909, 9910, 10111, 10110, 10311, 10312, 10513, 10512
1387, 9910, 9911, 10112, 10111, 10312, 10313, 10514, 10513
1388, 9911, 9912, 10113, 10112, 10313, 10314, 10515, 10514
1389, 9912, 9913, 10114, 10113, 10314, 10315, 10516, 10515
1390, 9913, 9914, 10115, 10114, 10315, 10316, 10517, 10516
1391, 9914, 9915, 10116, 10115, 10316, 10317, 10518, 10517
1392, 9915, 9916, 10117, 10116, 10317, 10318, 10519, 10518
1393, 9916, 9917, 10118, 10117, 10318, 10319, 10520, 10519
1394, 9917, 9918, 10119, 10118, 10319, 10320, 10521, 10520
1395, 9918, 9919, 10120, 10119, 10320, 10321, 10522, 10521
1396, 9919, 9920, 10121, 10120, 10321, 10322, 10523, 10522
1397, 9920, 9921, 10122, 10121, 10322, 10323, 10524, 10523
1398, 9921, 9922, 10123, 10122, 10323, 10324, 10525, 10524
1399, 9922, 9923, 10124, 10123, 10324, 10325, 10526, 10525
1400, 9923, 9924, 10125, 10124, 10325, 10326, 10527, 10526
1401, 9924, 9925, 10126, 10125, 10326, 10327, 10528, 10527
1402, 9925, 9926, 10127, 10126, 10327, 10328, 10529, 10528
1403, 9926, 9927, 10128, 10127, 10328, 10329, 10530, 10529
1404, 9927, 9928, 10129, 10128, 10329, 10330, 10531, 10530
1405, 9928, 9929, 10130, 10129, 10330, 10331, 10532, 10531
1406, 9929, 9930, 10131, 10130, 10331, 10332, 10533, 10532
1407, 9930, 9931, 10132, 10131, 10332, 10333, 10534, 10533
1408, 9931, 9932, 10133, 10132, 10333, 10334, 10535, 10534
1409, 9932, 9933, 10134, 10133, 10334, 10335, 10536, 10535
1410, 9933, 9934, 10135, 10134, 10335, 10336, 10537, 10536
1411, 9934, 9935, 10136, 10135, 10336, 10337, 10538, 10537
1412, 9935, 9936, 10137, 10136, 10337, 10338, 10539, 10538
1413, 9936, 9937, 10138, 10137, 10338, 10339, 10540, 10539
1414, 9937, 9938, 10139, 10138, 10339, 10340, 10541, 10540
1415, 9938, 9939, 10140, 10139, 10340, 10341, 10542, 10541
1416, 9939, 9940, 10141, 10140, 10341, 10342, 10543, 10542
1417, 9940, 9941, 10142, 10141, 10342, 10343, 10544, 10543
1418, 9941, 9942, 10143, 10142, 10343, 10344, 10545, 10544
1419, 9942, 9943, 10144, 10143, 10344, 10345, 10546, 10545
1420, 9943, 9944, 10145, 10144, 10345, 10346, 10547, 10546
1421, 9944, 9945, 10146, 10145, 10346, 10347, 10548, 10547
1422, 9945, 9946, 10147, 10146, 10347, 10348, 10549, 10548
1423, 9946, 9947, 10148, 10147, 10348, 10349, 10550, 10549
1424, 9947, 9948, 10149, 10148, 10349, 10350, 10551, 10550
1425, 9948, 9949, 10150, 10149, 10350, 10351, 10552, 10551
1426, 9949, 9950, 10151, 10150, 10351, 10352, 10553, 10552
1427, 9950, 9951, 10152, 10151, 10352, 10353, 10554, 10553
1428, 9951, 9952, 10153, 10152, 10353, 10354, 10555, 10554
1429, 9952, 9953, 10154, 10153, 10354, 10355, 10556, 10555
1430, 9953, 9954, 10155, 10154, 10355, 10356, 10557, 10556
1431, 9954, 9955, 10156, 10155, 10356, 10357, 10558, 10557
1432, 9955, 9956, 10157, 10156, 10357, 10358, 10559, 10558
1433, 9956, 9957, 10158, 10157, 10358, 10359, 10560, 10559
1434, 9957, 9958, 10159, 10158, 10359, 10360, 10561, 10560
1435, 9958, 9959, 10160, 10159, 10360, 10361, 10562, 10561
1436, 9959, 9960, 10161, 10160, 10361, 10362, 10563, 10562
1437, 9960, 9961, 10162, 10161, 10362, 10363, 10564, 10563
1438, 9961, 9962, 10163, 10162, 10363, 10364, 10565, 10564
1439, 9962, 9963, 10164, 10163, 10364, 10365, 10566, 10565
1440, 9963, 9964, 10165, 10164, 10365, 10366, 10567, 10566
1441, 9964, 9965, 10166, 10165, 10366, 10367, 10568, 10567
1442, 9965, 9966, 10167, 10166, 10367, 10368, 10569, 10568
1443, 9966, 9967, 10168, 10167, 10368, 10369, 10570, 10569
1444, 9967, 9968, 10169, 10168, 10369, 10370, 10571, 10570
1445, 9968, 9969, 10170, 10169, 10370, 10371, 10572, 10571
1446, 9969, 9970, 10171, 10170, 10371, 10372, 10573, 10572
1447, 9970, 9971, 10172, 10171, 10372, 10373, 10574, 10573
1448, 9971, 9972, 10173, 10172, 10373, 10374, 10575, 10574
1449, 9972, 9973, 10174, 10173, 10374, 10375, 10576, 10575
1450, 9973, 9974, 10175, 10174, 10375, 10376, 10577, 10576
1451, 9974, 9975, 10176, 10175, 10376, 10377, 10578, 10577
1452, 9975, 9976, 10177, 10176, 10377, 10378, 10579, 10578
1453, 9976, 9977, 10178, 10177, 10378, 10379, 10580, 10579
1454, 9977, 9978, 10179, 10178, 10379, 10380, 10581, 10580
1455, 9978, 9979, 10180, 10179, 10380, 10381, 10582, 10581
1456, 9979, 9980, 10181, 10180, 10381, 10382, 10583, 10582
1457, 9980, 9981, 10182, 10181, 10382, 10383, 10584, 10583
1458, 9981, 9982, 10183, 10182, 10383, 10384, 10585, 10584
1459, 9982, 9983, 10184, 10183, 10384, 10385, 10586, 10585
1460, 9983, 9984, 10185, 10184, 10385, 10386, 10587, 10586
1461, 9984, 9985, 10186, 10185, 10386, 10387, 10588, 10587
1462, 9985, 9986, 10187, 10186, 10387, 10388, 10589, 10588
1463, 9986, 9987, 10188, 10187, 10388, 10389, 10590, 10589
1464, 9987, 9988, 10189, 10188, 10389, 10390, 10591, 10590
1465, 9988, 9989, 10190, 10189, 10390, 10391, 10592, 10591
1466, 9989, 9990, 10191, 10190, 10391, 10392, 10593, 10592
1467, 9990, 9991, 10192, 10191, 10392, 10393, 10594, 10593
1468, 9991, 9992, 10193, 10192, 10393, 10394, 10595, 10594
1469, 9992, 9993, 10194, 10193, 10394, 10395, 10596, 10595
1470, 9993, 9994, 10195, 10194, 10395, 10396, 10597, 10596
1471, 9994, 9995, 10196, 10195, 10396, 10397, 10598, 10597
1472, 9995, 9996, 10197, 10196, 10397, 10398, 10599, 10598
1473, 9996, 9997, 10198, 10197, 10398, 10399, 10600, 10599
1474, 9997, 9998, 10199, 10198, 10399, 10400, 10601, 10600
1475, 9998, 9999, 10200, 10199, 10400, 10401, 10602, 10601
1476, 9999, 10000, 10201, 10200, 10401, 10402, 10603, 10602
1477, 10000, 10001, 10202, 10201, 10402, 10403, 10604, 10603
1478, 10001, 10002, 10203, 10202, 10403, 10404, 10605, 10604
1479, 10002, 10003, 10204, 10203, 10404, 10405, 10606, 10605
1480, 10003, 10004, 10205, 10204, 10405, 10406, 10607, 10606
*NSET, NSET=CLAMP
1, 2, 3, 4, 5, 6, 7, 8, 9, 10, 11, 12
13, 14, 15, 16, 17, 18, 19, 20, 21, 22, 23, 24
25, 26, 27, 28, 29, 30, 31, 32, 33, 34, 35, 36
37, 38, 39, 40, 41, 42, 43, 44, 45, 46, 47, 48
49, 50, 51, 52, 53, 54, 55, 56, 57, 58, 59, 60
61, 62, 63, 64, 65, 66, 67, 68, 69, 70, 71, 72
73, 74, 75, 76, 77, 78, 79, 80, 81, 82, 83, 84
85, 86, 87, 88, 89, 90, 91, 92, 93, 94, 95, 96
97, 98, 99, 100, 101, 102, 103, 104, 105, 106, 107, 108
109, 110, 111, 112, 113, 114, 115, 116, 117, 118, 119, 120
121, 122, 123, 124, 125, 126, 127, 128, 129, 130, 131, 132
133, 134, 135, 136, 137, 138, 139, 140, 141, 142, 143, 144
145, 146, 147, 148, 149, 150, 151, 152, 153, 154, 155, 156
157, 158, 159, 160, 161, 162, 163, 164, 165, 166, 167, 168
169, 170, 171, 172, 173, 174, 175, 176, 177, 178, 179, 180
181, 182, 183, 184, 185, 186, 187, 188, 189, 190, 191, 192
193, 194, 195, 196, 197, 198, 199, 200, 201, 202, 203, 204
205, 206, 207, 208, 209, 210, 211, 212, 213, 214, 215, 216
217, 218, 219, 220, 221, 222, 223, 224, 225, 226, 227, 228
229, 230, 231, 232, 233, 234, 235, 236, 237, 238, 239, 240
241, 242, 243, 244, 245, 246, 247, 248, 1677, 1678, 1679, 1680
1682, 1685, 1687, 1688, 1689, 1690, 1691, 1692, 1693, 1694, 1695, 1696
1697, 1698, 1699, 1700, 1701, 1702, 1703, 1704, 1705, 1706, 1707, 1708
1709, 1710, 1711, 1712, 1713, 1714, 1715, 1716, 1717, 1718, 1719, 1720
1721, 1722, 1723, 1724, 1725, 1726, 1727, 1728, 1729, 1730, 1731, 1732
1733, 1734, 1735, 1736, 1737, 1738, 1739, 1740, 1741, 1742, 1743, 1744
1745, 1746, 1747, 1748, 1749, 1750, 1751, 1752, 1753, 1754, 1755, 1756
1757, 1758, 1759, 1760, 1761, 1762, 1763, 1764, 1765, 1766, 1767, 1768
1769, 1770, 1771, 1772, 1773, 1774, 1775, 1776, 1777, 1778, 1779, 1780
1781, 1782, 1783, 1784, 1785, 1786, 1787, 1788, 1789, 1790, 1791, 1792
1793, 1794, 1795, 1796, 1797, 1798, 1799, 1800, 1801, 1802, 1803, 1804
1805, 1806, 1807, 1808, 1809, 1810, 1811, 1812, 1813, 1814, 1815, 1816
1817, 1818, 1819, 1820, 1821, 1822, 1823, 1824, 1825, 1826, 1827, 1828
1829, 1830, 1831, 1832, 1833, 1834, 1835, 1836, 1837, 1838, 1839, 1840
1841, 1842, 1843, 1844, 1845, 1846, 1847, 1848, 1849, 1850, 1851, 1852
1853, 1854, 1855, 1856, 1857, 1858, 1859, 1860, 1861, 1862, 1863, 1864
1865, 1866, 1867, 1868, 1869, 1870, 1871, 1872, 1873, 1874, 1875, 1876
1877, 1878, 1879, 1880, 1881, 1882, 1883, 1884, 1885, 1886, 1887, 1888
1889, 1890, 1891, 1892, 1893, 1894, 1895, 1896, 1897, 1898, 1899, 1900
1901, 1902, 1903, 1904, 1905, 1906, 1907, 1908, 1909, 1910, 1911, 1912
1913, 1914, 1915, 1916, 1917, 1918, 1919, 1920, 1921, 1922, 1923, 1924
1925, 1926, 1927, 1928, 1929, 1930, 1931, 1932, 1933, 1934, 1935, 1936
1937, 1938, 1939, 1940, 1941, 1942, 1943, 1944, 1945, 1946, 1947, 1948
1949, 1950, 1951, 1952, 1953, 1954, 1955, 1956, 1957, 1958, 1959, 1960
1961, 1962, 1963, 1964, 1965, 1966, 1967, 1968, 1969, 1970, 1971, 1972
1973, 1974, 1975, 1976, 1977, 1978, 1979, 1980, 1981, 1982, 1983, 1984
1985, 1986, 1987, 1988, 1989, 1990, 1991, 1992, 1993, 1994, 1995, 1996
1997, 1998, 1999, 2000, 2001, 2002, 2003, 2004, 2005, 2006, 2007, 2008
2009, 2010, 2011, 2012, 2013, 2014, 2015, 2016, 2017, 2018, 2019, 2020
2021, 2022, 2023, 2024, 2025, 2026, 2027, 2028, 2029, 2030, 2031, 2032
2033, 2034, 2035, 2036, 2037, 2038, 2039, 2040, 2041, 2042, 2043, 2044
2045, 2046, 2047, 2048, 2049, 2050, 2051, 2052, 2053, 2054, 2055, 2056
2057, 2058, 2059, 2060, 2061, 2062, 2063, 2064, 2065, 2066, 2067, 2068
2069, 2070, 2071, 2072, 2073, 2907, 2908, 2910, 2912, 2913, 2914, 2915
2916, 2917, 2918, 2919, 2920, 2921, 2922, 2923, 2924, 2925, 2926, 2927
2928, 2929, 2930, 2931, 2932, 2933, 2934, 2935, 2936, 2937, 2938, 2939
2940, 2941, 2942, 2943, 2944, 2945, 2946, 2947, 2948, 2949, 2950, 2951
2952, 2953, 2954, 2955, 2956, 2957, 2958, 2959, 2960, 2961, 2962, 2963
2964, 2965, 2966, 2967, 2968, 2969, 2970, 2971, 2972, 2973, 2974, 2975
2976, 2977, 2978, 2979, 2980, 2981, 2982, 2983, 2984, 2985, 2986, 2987
2988, 2989, 2990, 2991, 2992, 2993, 2994, 2995, 2996, 2997, 2998, 2999
3000, 3001, 3002, 3003, 3004, 3005, 3006, 3007, 3008, 3009, 3010, 3011
3012, 3013, 3014, 3015, 3016, 3017, 3018, 3019, 3020, 3021, 3022, 3023
3024, 3025, 3026, 3027, 3028, 3029, 3030, 3031, 3032, 3033, 3034, 3035
3036, 3037, 3038, 3039, 3040, 3041, 3042, 3043, 3044, 3045, 3046, 3047
3048, 3049, 3050, 3051, 3052, 3053, 3054, 3055, 3056, 3057, 3058, 3059
3060, 3061, 3062, 3063, 3064, 3065, 3066, 3067, 3068, 3069, 3070, 3071
3072, 3073, 3074, 3075, 3076, 3077, 3078, 3079, 3080, 3081, 3082, 3083
3084, 3085, 3086, 3087, 3088, 3089, 3090, 3091, 3092, 3093, 3094, 3095
3096, 3097, 3098, 3099, 3100, 3101, 3102, 3103, 3104, 3105, 3106, 3107
3108, 3109, 3110, 3111, 3112, 3113, 3114, 3115, 3116, 3117, 3118, 3119
3120, 3121, 3122, 3123, 3124, 3125, 3126, 3127, 3128, 3129, 3130, 3131
3132, 3133, 3134, 3135, 3136, 3137, 3138, 3139, 3140, 3141, 3142, 3143
3144, 3145, 3146, 3147, 3148, 3149, 3150, 3151, 3152, 3153, 3154, 3155
3156, 3157, 3158, 3159, 3160, 3161, 3162, 3163, 3164, 3165, 3166, 3167
3168, 3169, 3170, 3171, 3172, 3173, 3174, 3175, 3176, 3177, 3178, 3179
3180, 3181, 3182, 3183, 3184, 3185, 3186, 3187, 3188, 3189, 3190, 3191
3192, 3193, 3194, 3195, 3196, 3197, 3198, 4032, 4033, 4035, 4037, 4038
4039, 4040, 4041, 4042, 4043, 4044, 4045, 4046, 4047, 4048, 4049, 4050
4051, 4052, 4053, 4054, 4055, 4056, 4057, 4058, 4059, 4060, 4061, 4062
4063, 4064, 4065, 4066, 4067, 4068, 4069, 4070, 4071, 4072, 4073, 4074
4075, 4076, 4077, 4078, 4079, 4080, 4081, 4082, 4083, 4084, 4085, 4086
4087, 4088, 4089, 4090, 4091, 4092, 4093, 4094, 4095, 4096, 4097, 4098
4099, 4100, 4101, 4102, 4103, 4104, 4105, 4106, 4107, 4108, 4109, 4110
4111, 4112, 4113, 4114, 4115, 4116, 4117, 4118, 4119, 4120, 4121, 4122
4123, 4124, 4125, 4126, 4127, 4128, 4129, 4130, 4131, 4132, 4133, 4134
4135, 4136, 4137, 4138, 4139, 4140, 4141, 4142, 4143, 4144, 4145, 4146
4147, 4148, 4149, 4150, 4151, 4152, 4153, 4154, 4155, 4156, 4157, 4158
4159, 4160, 4161, 4162, 4163, 4164, 4165, 4166, 4167, 4168, 4169, 4170
4171, 4172, 4173, 4174, 4175, 4176, 4177, 4178, 4179, 4180, 4181, 4182
4183, 4184, 4185, 4186, 4187, 4188, 4189, 4190, 4191, 4192, 4193, 4194
4195, 4196, 4197, 4198, 4199, 4200, 4201, 4202, 4203, 4204, 4205, 4206
4207, 4208, 4209, 4210, 4211, 4212, 4213, 4214, 4215, 4216, 4217, 4218
4219, 4220, 4221, 4222, 4223, 4224, 4225, 4226, 4227, 4228, 4229, 4230
4231, 4232, 4233, 4234, 4235, 4236, 4237, 4238, 4239, 4240, 4241, 4242
4243, 4244, 4245, 4246, 4247, 4248, 4249, 4250, 4251, 4252, 4253, 4254
4255, 4256, 4257, 4258, 4259, 4260, 4261, 4262, 4263, 4264, 4265, 4266
4267, 4268, 4269, 4270, 4271, 4272, 4273, 4274, 4275, 4276, 4277, 4278
4279, 4280, 4281, 4282, 4283, 4284, 4285, 4286, 4287, 4288, 4289, 4290
4291, 4292, 4293, 4294, 4295, 4296, 4297, 4298, 4299, 4300, 4301, 4302
4303, 4304, 4305, 4306, 4307, 4308, 4309, 4310, 4311, 4312, 4313, 4314
4315, 4316, 4317, 4318, 4319, 4320, 4321, 4322, 4323, 5157, 5158, 5160
5162, 5163, 5164, 5165, 5166, 5167, 5168, 5169, 5170, 5171, 5172, 5173
5174, 5175, 5176, 5177, 5178, 5179, 5180, 5181, 5182, 5183, 5184, 5185
5186, 5187, 5188, 5189, 5190, 5191, 5192, 5193, 5194, 5195, 5196, 5197
5198, 5199, 5200, 5201, 5202, 5203, 5204, 5205, 5206, 5207, 5208, 5209
5210, 5211, 5212, 5213, 5214, 5215, 5216, 5217, 5218, 5219, 5220, 5221
5222, 5223, 5224, 5225, 5226, 5227, 5228, 5229, 5230, 5231, 5232, 5233
5234, 5235, 5236, 5237, 5238, 5239, 5240, 5241, 5242, 5243, 5244, 5245
5246, 5247, 5248, 5249, 5250, 5251, 5252, 5253, 5254, 5255, 5256, 5257
5258, 5259, 5260, 5261, 5262, 5263, 5264, 5265, 5266, 5267, 5268, 5269
5270, 5271, 5272, 5273, 5274, 5275, 5276, 5277, 5278, 5279, 5280, 5281
5282, 5283, 5284, 5285, 5286, 5287, 5288, 5289, 5290, 5291, 5292, 5293
5294, 5295, 5296, 5297, 5298, 5299, 5300, 5301, 5302, 5303, 5304, 5305
5306, 5307, 5308, 5309, 5310, 5311, 5312, 5313, 5314, 5315, 5316, 5317
5318, 5319, 5320, 5321, 5322, 5323, 5324, 5325, 5326, 5327, 5328, 5329
5330, 5331, 5332, 5333, 5334, 5335, 5336, 5337, 5338, 5339, 5340, 5341
5342, 5343, 5344, 5345, 5346, 5347, 5348, 5349, 5350, 5351, 5352, 5353
5354, 5355, 5356, 5357, 5358, 5359, 5360, 5361, 5362, 5363, 5364, 5365
5366, 5367, 5368, 5369, 5370, 5371, 5372, 5373, 5374, 5375, 5376, 5377
5378, 5379, 5380, 5381, 5382, 5383, 5384, 5385, 5386, 5387, 5388, 5389
5390, 5391, 5392, 5393, 5394, 5395, 5396, 5397, 5398, 5399, 5400, 5401
5402, 5403, 5404, 5405, 5406, 5407, 5408, 5409, 5410, 5411, 5412, 5413
5414, 5415, 5416, 5417, 5418, 5419, 5420, 5421, 5422, 5423, 5424, 5425
5426, 5427, 5428, 5429, 5430, 5431, 5432, 5433, 5434, 5435, 5436, 5437
5438, 5439, 5440, 5441, 5442, 5443, 5444, 5445, 5446, 5447, 5448, 6282
6283, 6285, 6287, 6288, 6289, 6290, 6291, 6292, 6293, 6294, 6295, 6296
6297, 6298, 6299, 6300, 6301, 6302, 6303, 6304, 6305, 6306, 6307, 6308
6309, 6310, 6311, 6312, 6313, 6314, 6315, 6316, 6317, 6318, 6319, 6320
6321, 6322, 6323, 6324, 6325, 6326, 6327, 6328, 6329, 6330, 6331, 6332
6333, 6334, 6335, 6336, 6337, 6338, 6339, 6340, 6341, 6342, 6343, 6344
6345, 6346, 6347, 6348, 6349, 6350, 6351, 6352, 6353, 6354, 6355, 6356
6357, 6358, 6359, 6360, 6361, 6362, 6363, 6364, 6365, 6366, 6367, 6368
6369, 6370, 6371, 6372, 6373, 6374, 6375, 6376, 6377, 6378, 6379, 6380
6381, 6382, 6383, 6384, 6385, 6386, 6387, 6388, 6389, 6390, 6391, 6392
6393, 6394, 6395, 6396, 6397, 6398, 6399, 6400, 6401, 6402, 6403, 6404
6405, 6406, 6407, 6408, 6409, 6410, 6411, 6412, 6413, 6414, 6415, 6416
6417, 6418, 6419, 6420, 6421, 6422, 6423, 6424, 6425, 6426, 6427, 6428
6429, 6430, 6431, 6432, 6433, 6434, 6435, 6436, 6437, 6438, 6439, 6440
6441, 6442, 6443, 6444, 6445, 6446, 6447, 6448, 6449, 6450, 6451, 6452
6453, 6454, 6455, 6456, 6457, 6458, 6459, 6460, 6461, 6462, 6463, 6464
6465, 6466, 6467, 6468, 6469, 6470, 6471, 6472, 6473, 6474, 6475, 6476
6477, 6478, 6479, 6480, 6481, 6482, 6483, 6484, 6485, 6486, 6487, 6488
6489, 6490, 6491, 6492, 6493, 6494, 6495, 6496, 6497, 6498, 6499, 6500
6501, 6502, 6503, 6504, 6505, 6506, 6507, 6508, 6509, 6510, 6511, 6512
6513, 6514, 6515, 6516, 6517, 6518, 6519, 6520, 6521, 6522, 6523, 6524
6525, 6526, 6527, 6528, 6529, 6530, 6531, 6532, 6533, 6534, 6535, 6536
6537, 6538, 6539, 6540, 6541, 6542, 6543, 6544, 6545, 6546, 6547, 6548
6549, 6550, 6551, 6552, 6553, 6554, 6555, 6556, 6557, 6558, 6559, 6560
6561, 6562, 6563, 6564, 6565, 6566, 6567, 6568, 6569, 6570, 6571, 6572
6573, 7407, 7408, 7410, 7412, 7413, 7414, 7415, 7416, 7417, 7418, 7419
7420, 7421, 7422, 7423, 7424, 7425, 7426, 7427, 7428, 7429, 7430, 7431
7432, 7433, 7434, 7435, 7436, 7437, 7438, 7439, 7440, 7441, 7442, 7443
7444, 7445, 7446, 7447, 7448, 7449, 7450, 7451, 7452, 7453, 7454, 7455
7456, 7457, 7458, 7459, 7460, 7461, 7462, 7463, 7464, 7465, 7466, 7467
7468, 7469, 7470, 7471, 7472, 7473, 7474, 7475, 7476, 7477, 7478, 7479
7480, 7481, 7482, 7483, 7484, 7485, 7486, 7487, 7488, 7489, 7490, 7491
7492, 7493, 7494, 7495, 7496, 7497, 7498, 7499, 7500, 7501, 7502, 7503
7504, 7505, 7506, 7507, 7508, 7509, 7510, 7511, 7512, 7513, 7514, 7515
7516, 7517, 7518, 7519, 7520, 7521, 7522, 7523, 7524, 7525, 7526, 7527
7528, 7529, 7530, 7531, 7532, 7533, 7534, 7535, 7536, 7537, 7538, 7539
7540, 7541, 7542, 7543, 7544, 7545, 7546, 7547, 7548, 7549, 7550, 7551
7552, 7553, 7554, 7555, 7556, 7557, 7558, 7559, 7560, 7561, 7562, 7563
7564, 7565, 7566, 7567, 7568, 7569, 7570, 7571, 7572, 7573, 7574, 7575
7576, 7577, 7578, 7579, 7580, 7581, 7582, 7583, 7584, 7585, 7586, 7587
7588, 7589, 7590, 7591, 7592, 7593, 7594, 7595, 7596, 7597, 7598, 7599
7600, 7601, 7602, 7603, 7604, 7605, 7606, 7607, 7608, 7609, 7610, 7611
7612, 7613, 7614, 7615, 7616, 7617, 7618, 7619, 7620, 7621, 7622, 7623
7624, 7625, 7626, 7627, 7628, 7629, 7630, 7631, 7632, 7633, 7634, 7635
7636, 7637, 7638, 7639, 7640, 7641, 7642, 7643, 7644, 7645, 7646, 7647
7648, 7649, 7650, 7651, 7652, 7653, 7654, 7655, 7656, 7657, 7658, 7659
7660, 7661, 7662, 7663, 7664, 7665, 7666, 7667, 7668, 7669, 7670, 7671
7672, 7673, 7674, 7675, 7676, 7677, 7678, 7679, 7680, 7681, 7682, 7683
7684, 7685, 7686, 7687, 7688, 7689, 7690, 7691, 7692, 7693, 7694, 7695
7696, 7697, 7698, 8532, 8533, 8535, 8537, 8538, 8539, 8540, 8541, 8542
8543, 8544, 8545, 8546, 8547, 8548, 8549, 8550, 8551, 8552, 8553, 8554
8555, 8556, 8557, 8558, 8559, 8560, 8561, 8562, 8563, 8564, 8565, 8566
8567, 8568, 8569, 8570, 8571, 8572, 8573, 8574, 8575, 8576, 8577, 8578
8579, 8580, 8581, 8582, 8583, 8584, 8585, 8586, 8587, 8588, 8589, 8590
8591, 8592, 8593, 8594, 8595, 8596, 8597, 8598, 8599, 8600, 8601, 8602
8603, 8604, 8605, 8606, 8607, 8608, 8609, 8610, 8611, 8612, 8613, 8614
8615, 8616, 8617, 8618, 8619, 8620, 8621, 8622, 8623, 8624, 8625, 8626
8627, 8628, 8629, 8630, 8631, 8632, 8633, 8634, 8635, 8636, 8637, 8638
8639, 8640, 8641, 8642, 8643, 8644, 8645, 8646, 8647, 8648, 8649, 8650
8651, 8652, 8653, 8654, 8655, 8656, 8657, 8658, 8659, 8660, 8661, 8662
8663, 8664, 8665, 8666, 8667, 8668, 8669, 8670, 8671, 8672, 8673, 8674
8675, 8676, 8677, 8678, 8679, 8680, 8681, 8682, 8683, 8684, 8685, 8686
8687, 8688, 8689, 8690, 8691, 8692, 8693, 8694, 8695, 8696, 8697, 8698
8699, 8700, 8701, 8702, 8703, 8704, 8705, 8706, 8707, 8708, 8709, 8710
8711, 8712, 8713, 8714, 8715, 8716, 8717, 8718, 8719, 8720, 8721, 8722
8723, 8724, 8725, 8726, 8727, 8728, 8729, 8730, 8731, 8732, 8733, 8734
8735, 8736, 8737, 8738, 8739, 8740, 8741, 8742, 8743, 8744, 8745, 8746
8747, 8748, 8749, 8750, 8751, 8752, 8753, 8754, 8755, 8756, 8757, 8758
8759, 8760, 8761, 8762, 8763, 8764, 8765, 8766, 8767, 8768, 8769, 8770
8771, 8772, 8773, 8774, 8775, 8776, 8777, 8778, 8779, 8780, 8781, 8782
8783, 8784, 8785, 8786, 8787, 8788, 8789, 8790, 8791, 8792, 8793, 8794
8795, 8796, 8797, 8798, 8799, 8800, 8801, 8802, 8803, 8804, 8805, 8806
8807, 8808, 8809, 8810, 8811, 8812, 8813, 8814, 8815, 8816, 8817, 8818
8819, 8820, 8821, 8822, 8823, 9657, 9658, 9660, 9662, 9663, 9664, 9665
9666, 9667, 9668, 9669, 9670, 9671, 9672, 9673, 9674, 9675, 9676, 9677
9678, 9679, 9680, 9681, 9682, 9683, 9684, 9685, 9686, 9687, 9688, 9689
9690, 9691, 9692, 9693, 9694, 9695, 9696, 9697, 9698, 9699, 9700, 9701
9702, 9703, 9704, 9705, 9706, 9707, 9708, 9709, 9710, 9711, 9712, 9713
9714, 9715, 9716, 9717, 9718, 9719, 9720, 9721, 9722, 9723, 9724, 9725
9726, 9727, 9728, 9729, 9730, 9731, 9732, 9733, 9734, 9735, 9736, 9737
9738, 9739, 9740, 9741, 9742, 9743, 9744, 9745, 9746, 9747, 9748, 9749
9750, 9751, 9752, 9753, 9754, 9755, 9756, 9757, 9758, 9759, 9760, 9761
9762, 9763, 9764, 9765, 9766, 9767, 9768, 9769, 9770, 9771, 9772, 9773
9774, 9775, 9776, 9777, 9778, 9779, 9780, 9781, 9782, 9783, 9784, 9785
9786, 9787, 9788, 9789, 9790, 9791, 9792, 9793, 9794, 9795, 9796, 9797
9798, 9799, 9800, 9801, 9802, 9803
*NSET, NSET=SUPA
8733, 8734, 8736
*NSET, NSET=SUPB
9741, 9742, 9744
*NSET, NSET=NTOP
8679, 8680, 8683, 8691, 8693, 8698, 8700, 8705, 8707, 8712, 8714, 8719
8721, 8726, 8728, 8733, 8735, 8740, 8742, 8747, 8749, 8754, 8756, 8761
8763, 8768, 8770, 8775, 8777, 8782, 8784, 8789, 8791, 8796, 8798, 8803
8805, 8810, 8812, 8817, 8819, 8824, 8826, 8831, 8833, 8838, 8840, 8845
8847, 8852, 8854, 8859, 8861, 8866, 8868, 8873, 8875, 8880, 8882, 8887
8889, 8894, 8896, 8901, 8903, 8908, 8910, 8915, 8917, 8922, 8924, 8929
8931, 8936, 8938, 8943, 8945, 8950, 8952, 8957, 8959, 8964, 8966, 8971
8973, 8978, 8980, 8985, 8987, 8992, 8994, 8999, 9001, 9006, 9008, 9013
9015, 9020, 9022, 9027, 9029, 9034, 9036, 9041, 9043, 9048, 9050, 9055
9057, 9062, 9064, 9069, 9071, 9076, 9078, 9083, 9085, 9090, 9092, 9097
9099, 9104, 9106, 9111, 9113, 9118, 9120, 9125, 9127, 9132, 9134, 9139
9141, 9146, 9148, 9153, 9155, 9160, 9162, 9167, 9169, 9174, 9176, 9181
9183, 9188, 9190, 9195, 9197, 9202, 9204, 9209, 9211, 9216, 9218, 9223
9225, 9230, 9232, 9237, 9239, 9244, 9246, 9251, 9253, 9258, 9260, 9265
9267, 9272, 9274, 9279, 9281, 9286, 9288, 9293, 9295, 9300, 9302, 9307
9309, 9314, 9316, 9321, 9323, 9328, 9330, 9335, 9337, 9342, 9344, 9349
9351, 9356, 9358, 9363, 9365, 9370, 9372, 9377, 9379, 9384, 9386, 9391
9393, 9398, 9400, 9405, 9407, 9412, 9414, 9419, 9421, 9426, 9428, 9433
9435, 9440, 9442, 9447, 9449, 9454, 9456, 9461, 9463, 9468, 9470, 9475
9477, 9482, 9484, 9489, 9491, 9496, 9498, 9503, 9505, 9510, 9512, 9517
9519, 9524, 9526, 9531, 9533, 9538, 9540, 9545, 9547, 9552, 9554, 9559
9561, 9566, 9568, 9573, 9575, 9580, 9582, 9587, 9589, 9594, 9596, 9601
9603, 9608, 9610, 9615, 9617, 9622, 9624, 9629, 9631, 9636, 9638, 9643
9645, 9650, 9652, 9657, 9659, 9664, 9666, 9671, 9673, 9678, 9680, 9685
9687, 9692, 9694, 9699, 9701, 9706, 9708, 9713, 9715, 9720, 9722, 9727
9729, 9734, 9736, 9741, 9743, 9748, 9750, 9755, 9757, 9762, 9764, 9769
9771, 9776, 9778, 9783, 9785, 9790, 9792, 9797, 9799
*ELSET, ELSET=ETOPL
1121, 1122, 1123, 1124, 1125, 1126, 1127, 1128, 1129, 1130, 1131, 1132
1133, 1134, 1135, 1136, 1137, 1138, 1139, 1140, 1141, 1142, 1143, 1144
1145, 1146, 1147, 1148, 1149, 1150, 1151, 1152, 1153, 1154, 1155, 1156
1157, 1158, 1159, 1160, 1161, 1162, 1163, 1164, 1165, 1166, 1167, 1168
1169, 1170, 1171, 1172, 1173, 1174, 1175, 1176, 1177, 1178, 1179, 1180
1181, 1182, 1183, 1184, 1185, 1186, 1187, 1188, 1189, 1190, 1191, 1192
1193, 1194, 1195, 1196, 1197, 1198, 1199, 1200, 1201, 1202, 1203, 1204
1205, 1206, 1207, 1208, 1209, 1210, 1211, 1212, 1213, 1214, 1215, 1216
1217, 1218, 1219, 1220, 1221, 1222, 1223, 1224, 1225, 1226, 1227, 1228
1229, 1230, 1231, 1232, 1233, 1234, 1235, 1236, 1237, 1238, 1239, 1240
1241, 1242, 1243, 1244, 1245, 1246, 1247, 1248, 1249, 1250, 1251, 1252
1253, 1254, 1255, 1256, 1257, 1258, 1259, 1260, 1261, 1262, 1263, 1264
1265, 1266, 1267, 1268, 1269, 1270, 1271, 1272, 1273, 1274, 1275, 1276
1277, 1278, 1279, 1280
*SURFACE, NAME=SSLAVE, TYPE=ELEMENT
ETOPL, S2
*SURFACE, NAME=SMASTER, TYPE=ELEMENT
1281, S1
1282, S1
1283, S1
1284, S1
1285, S1
1286, S1
1287, S1
1288, S1
1289, S1
1290, S1
1291, S1
1292, S1
1293, S1
1294, S1
1295, S1
1296, S1
1297, S1
1298, S1
1299, S1
1300, S1
1301, S1
1302, S1
1303, S1
1304, S1
1305, S1
1306, S1
1307, S1
1308, S1
1309, S1
1310, S1
1311, S1
1312, S1
1313, S1
1314, S1
1315, S1
1316, S1
1317, S1
1318, S1
1319, S1
1320, S1
1321, S1
1322, S1
1323, S1
1324, S1
1325, S1
1326, S1
1327, S1
1328, S1
1329, S1
1330, S1
1331, S1
1332, S1
1333, S1
1334, S1
1335, S1
1336, S1
1337, S1
1338, S1
1339, S1
1340, S1
1341, S1
1342, S1
1343, S1
1344, S1
1345, S1
1346, S1
1347, S1
1348, S1
1349, S1
1350, S1
1351, S1
1352, S1
1353, S1
1354, S1
1355, S1
1356, S1
1357, S1
1358, S1
1359, S1
1360, S1
1361, S1
1362, S1
1363, S1
1364, S1
1365, S1
1366, S1
1367, S1
1368, S1
1369, S1
1370, S1
1371, S1
1372, S1
1373, S1
1374, S1
1375, S1
1376, S1
1377, S1
1378, S1
1379, S1
1380, S1
1381, S1
1382, S1
1383, S1
1384, S1
1385, S1
1386, S1
1387, S1
1388, S1
1389, S1
1390, S1
1391, S1
1392, S1
1393, S1
1394, S1
1395, S1
1396, S1
1397, S1
1398, S1
1399, S1
1400, S1
1401, S1
1402, S1
1403, S1
1404, S1
1405, S1
1406, S1
1407, S1
1408, S1
1409, S1
1410, S1
1411, S1
1412, S1
1413, S1
1414, S1
1415, S1
1416, S1
1417, S1
1418, S1
1419, S1
1420, S1
1421, S1
1422, S1
1423, S1
1424, S1
1425, S1
1426, S1
1427, S1
1428, S1
1429, S1
1430, S1
1431, S1
1432, S1
1433, S1
1434, S1
1435, S1
1436, S1
1437, S1
1438, S1
1439, S1
1440, S1
1441, S1
1442, S1
1443, S1
1444, S1
1445, S1
1446, S1
1447, S1
1448, S1
1449, S1
1450, S1
1451, S1
1452, S1
1453, S1
1454, S1
1455, S1
1456, S1
1457, S1
1458, S1
1459, S1
1460, S1
1461, S1
1462, S1
1463, S1
1464, S1
1465, S1
1466, S1
1467, S1
1468, S1
1469, S1
1470, S1
1471, S1
1472, S1
1473, S1
1474, S1
1475, S1
1476, S1
1477, S1
1478, S1
1479, S1
1480, S1
*MATERIAL, NAME=AL
*ELASTIC
70000, 0.33
*PLASTIC
100, 0
102.005739, 0.001
103.986239, 0.002
105.94186, 0.003
107.872956, 0.004
109.779878, 0.005
111.662972, 0.006
113.522577, 0.007
115.359028, 0.008
117.172657, 0.009
118.963788, 0.01
120.732743, 0.011
122.479839, 0.012
124.205387, 0.013
125.909695, 0.014
127.593067, 0.015
129.255801, 0.016
130.898192, 0.017
132.52053, 0.018
134.123101, 0.019
135.706188, 0.02
137.270069, 0.021
138.815018, 0.022
140.341305, 0.023
141.849196, 0.024
143.338954, 0.025
144.810839, 0.026
146.265105, 0.027
147.702003, 0.028
149.121781, 0.029
150.524685, 0.03
151.910955, 0.031
153.280827, 0.032
154.634537, 0.033
155.972315, 0.034
157.294389, 0.035
158.600982, 0.036
159.892316, 0.037
161.168608, 0.038
162.430073, 0.039
163.676923, 0.04
164.909367, 0.041
166.127609, 0.042
167.331854, 0.043
168.5223, 0.044
169.699144, 0.045
170.862581, 0.046
172.012803, 0.047
173.149997, 0.048
174.27435, 0.049
175.386045, 0.05
176.485262, 0.051
177.57218, 0.052
178.646975, 0.053
179.70982, 0.054
180.760884, 0.055
181.800336, 0.056
182.828343, 0.057
183.845067, 0.058
184.850669, 0.059
185.845308, 0.06
186.829141, 0.061
187.802322, 0.062
188.765003, 0.063
189.717334, 0.064
190.659462, 0.065
191.591533, 0.066
192.513692, 0.067
193.426078, 0.068
194.328833, 0.069
195.222092, 0.07
196.105993, 0.071
196.980668, 0.072
197.846249, 0.073
198.702866, 0.074
199.550646, 0.075
200.389717, 0.076
201.220202, 0.077
202.042224, 0.078
202.855904, 0.079
203.661361, 0.08
204.458711, 0.081
205.248072, 0.082
206.029556, 0.083
206.803277, 0.084
207.569345, 0.085
208.32787, 0.086
209.078958, 0.087
209.822717, 0.088
210.559251, 0.089
211.288663, 0.09
212.011054, 0.091
212.726526, 0.092
213.435176, 0.093
214.137102, 0.094
214.8324, 0.095
215.521165, 0.096
216.20349, 0.097
216.879466, 0.098
217.549185, 0.099
218.212736, 0.1
218.870207, 0.101
219.521684, 0.102
220.167254, 0.103
220.807, 0.104
221.441005, 0.105
222.069352, 0.106
222.692122, 0.107
223.309393, 0.108
223.921245, 0.109
224.527755, 0.11
225.128999, 0.111
225.725052, 0.112
226.315989, 0.113
226.901882, 0.114
227.482803, 0.115
228.058823, 0.116
228.630013, 0.117
229.196441, 0.118
229.758176, 0.119
230.315283, 0.12
230.86783, 0.121
231.415882, 0.122
231.959501, 0.123
232.498753, 0.124
233.033699, 0.125
233.5644, 0.126
234.090918, 0.127
234.613311, 0.128
235.13164, 0.129
235.645961, 0.13
236.156332, 0.131
236.66281, 0.132
237.16545, 0.133
237.664306, 0.134
238.159434, 0.135
238.650885, 0.136
239.138713, 0.137
239.622969, 0.138
240.103704, 0.139
240.580969, 0.14
241.054813, 0.141
241.525284, 0.142
241.992432, 0.143
242.456303, 0.144
242.916944, 0.145
243.374402, 0.146
243.828721, 0.147
244.279947, 0.148
244.728123, 0.149
245.173294, 0.15
245.615502, 0.151
246.054789, 0.152
246.491198, 0.153
246.924768, 0.154
247.355542, 0.155
247.783558, 0.156
248.208856, 0.157
248.631475, 0.158
249.051453, 0.159
249.468828, 0.16
249.883636, 0.161
250.295915, 0.162
250.705701, 0.163
251.113029, 0.164
251.517935, 0.165
251.920452, 0.166
252.320616, 0.167
252.718459, 0.168
253.114014, 0.169
253.507316, 0.17
253.898394, 0.171
254.287282, 0.172
254.674011, 0.173
255.058611, 0.174
255.441112, 0.175
255.821546, 0.176
256.19994, 0.177
256.576325, 0.178
256.95073, 0.179
257.323181, 0.18
257.693707, 0.181
258.062337, 0.182
258.429096, 0.183
258.794011, 0.184
259.157109, 0.185
259.518416, 0.186
259.877957, 0.187
260.235758, 0.188
260.591843, 0.189
260.946237, 0.19
261.298963, 0.191
261.650047, 0.192
261.999511, 0.193
262.347378, 0.194
262.693671, 0.195
263.038413, 0.196
263.381625, 0.197
263.72333, 0.198
264.063549, 0.199
264.402304, 0.2
264.739614, 0.201
265.075502, 0.202
265.409986, 0.203
265.743088, 0.204
266.074827, 0.205
266.405222, 0.206
266.734292, 0.207
267.062057, 0.208
267.388535, 0.209
267.713744, 0.21
268.037703, 0.211
268.36043, 0.212
268.681941, 0.213
269.002255, 0.214
269.321388, 0.215
269.639358, 0.216
269.95618, 0.217
270.271872, 0.218
270.586449, 0.219
270.899927, 0.22
271.212323, 0.221
271.523651, 0.222
271.833926, 0.223
272.143164, 0.224
272.45138, 0.225
272.758588, 0.226
273.064803, 0.227
273.370038, 0.228
273.674308, 0.229
273.977626, 0.23
274.280007, 0.231
274.581462, 0.232
274.882007, 0.233
275.181653, 0.234
275.480414, 0.235
275.778301, 0.236
276.075328, 0.237
276.371508, 0.238
276.666851, 0.239
276.961369, 0.24
277.255076, 0.241
277.547982, 0.242
277.840098, 0.243
278.131437, 0.244
278.422008, 0.245
278.711824, 0.246
279.000894, 0.247
279.28923, 0.248
279.576841, 0.249
279.863739, 0.25
280.149933, 0.251
280.435434, 0.252
280.720251, 0.253
281.004395, 0.254
281.287874, 0.255
281.570698, 0.256
281.852877, 0.257
282.13442, 0.258
282.415335, 0.259
282.695633, 0.26
282.975321, 0.261
283.254408, 0.262
283.532904, 0.263
283.810815, 0.264
284.088152, 0.265
284.364921, 0.266
284.641132, 0.267
284.916791, 0.268
285.191907, 0.269
285.466488, 0.27
285.740541, 0.271
286.014074, 0.272
286.287094, 0.273
286.559609, 0.274
286.831626, 0.275
287.103151, 0.276
287.374192, 0.277
287.644756, 0.278
287.91485, 0.279
288.18448, 0.28
288.453653, 0.281
288.722375, 0.282
288.990653, 0.283
289.258493, 0.284
289.525902, 0.285
289.792886, 0.286
290.05945, 0.287
290.325601, 0.288
290.591345, 0.289
290.856687, 0.29
291.121633, 0.291
291.386189, 0.292
291.65036, 0.293
291.914152, 0.294
292.17757, 0.295
292.44062, 0.296
292.703307, 0.297
292.965636, 0.298
293.227612, 0.299
293.48924, 0.3
296.087451, 0.31
298.655918, 0.32
301.198624, 0.33
303.71902, 0.34
306.220093, 0.35
308.70443, 0.36
311.174273, 0.37
313.631564, 0.38
316.077982, 0.39
318.514984, 0.4
320.943831, 0.41
323.365615, 0.42
325.781282, 0.43
328.191651, 0.44
330.597432, 0.45
332.999239, 0.46
335.397604, 0.47
337.792988, 0.48
340.18579, 0.49
342.576356, 0.5
344.964986, 0.51
347.351939, 0.52
349.737439, 0.53
352.121681, 0.54
354.504834, 0.55
356.887043, 0.56
359.268435, 0.57
361.649118, 0.58
364.029189, 0.59
366.408729, 0.6
368.787809, 0.61
371.166491, 0.62
373.544827, 0.63
375.922866, 0.64
378.300645, 0.65
380.6782, 0.66
383.055561, 0.67
385.432754, 0.68
387.809802, 0.69
390.186723, 0.7
392.563536, 0.71
394.940253, 0.72
397.316889, 0.73
399.693454, 0.74
402.069957, 0.75
404.446407, 0.76
406.822811, 0.77
409.199176, 0.78
411.575505, 0.79
413.951805, 0.8
416.328079, 0.81
418.70433, 0.82
421.080562, 0.83
423.456777, 0.84
425.832977, 0.85
428.209165, 0.86
430.585342, 0.87
432.961509, 0.88
435.337668, 0.89
437.71382, 0.9
440.089966, 0.91
442.466107, 0.92
444.842243, 0.93
447.218375, 0.94
449.594503, 0.95
451.970629, 0.96
454.346751, 0.97
456.722872, 0.98
459.098991, 0.99
461.475108, 1
463.851223, 1.01
466.227337, 1.02
468.603451, 1.03
470.979563, 1.04
473.355674, 1.05
475.731785, 1.06
478.107895, 1.07
480.484004, 1.08
482.860113, 1.09
485.236222, 1.1
487.61233, 1.11
489.988438, 1.12
492.364546, 1.13
494.740654, 1.14
497.116761, 1.15
499.492868, 1.16
501.868975, 1.17
504.245082, 1.18
506.621189, 1.19
508.997295, 1.2
511.373402, 1.21
513.749508, 1.22
516.125615, 1.23
518.501721, 1.24
520.877828, 1.25
523.253934, 1.26
525.63004, 1.27
528.006146, 1.28
530.382253, 1.29
532.758359, 1.3
535.134465, 1.31
537.510571, 1.32
539.886677, 1.33
542.262783, 1.34
544.63889, 1.35
547.014996, 1.36
549.391102, 1.37
551.767208, 1.38
554.143314, 1.39
556.51942, 1.4
558.895526, 1.41
561.271632, 1.42
563.647738, 1.43
566.023844, 1.44
568.399951, 1.45
570.776057, 1.46
573.152163, 1.47
575.528269, 1.48
577.904375, 1.49
580.280481, 1.5
582.656587, 1.51
585.032693, 1.52
587.408799, 1.53
589.784905, 1.54
592.161011, 1.55
594.537117, 1.56
596.913223, 1.57
599.289329, 1.58
601.665435, 1.59
604.041541, 1.6
606.417647, 1.61
608.793754, 1.62
611.16986, 1.63
613.545966, 1.64
615.922072, 1.65
618.298178, 1.66
620.674284, 1.67
623.05039, 1.68
625.426496, 1.69
627.802602, 1.7
630.178708, 1.71
632.554814, 1.72
634.93092, 1.73
637.307026, 1.74
639.683132, 1.75
642.059238, 1.76
644.435344, 1.77
646.81145, 1.78
649.187556, 1.79
651.563662, 1.8
653.939769, 1.81
656.315875, 1.82
658.691981, 1.83
661.068087, 1.84
663.444193, 1.85
665.820299, 1.86
668.196405, 1.87
670.572511, 1.88
672.948617, 1.89
675.324723, 1.9
677.700829, 1.91
680.076935, 1.92
682.453041, 1.93
684.829147, 1.94
687.205253, 1.95
689.581359, 1.96
691.957465, 1.97
694.333571, 1.98
696.709677, 1.99
699.085784, 2
701.46189, 2.01
703.837996, 2.02
706.214102, 2.03
708.590208, 2.04
710.966314, 2.05
713.34242, 2.06
715.718526, 2.07
718.094632, 2.08
720.470738, 2.09
722.846844, 2.1
725.22295, 2.11
727.599056, 2.12
729.975162, 2.13
732.351268, 2.14
734.727374, 2.15
737.10348, 2.16
739.479586, 2.17
741.855693, 2.18
744.231799, 2.19
746.607905, 2.2
748.984011, 2.21
751.360117, 2.22
753.736223, 2.23
756.112329, 2.24
758.488435, 2.25
760.864541, 2.26
763.240647, 2.27
765.616753, 2.28
767.992859, 2.29
770.368965, 2.3
772.745071, 2.31
775.121177, 2.32
777.497283, 2.33
779.873389, 2.34
782.249495, 2.35
784.625601, 2.36
787.001708, 2.37
789.377814, 2.38
791.75392, 2.39
794.130026, 2.4
796.506132, 2.41
798.882238, 2.42
801.258344, 2.43
803.63445, 2.44
806.010556, 2.45
808.386662, 2.46
810.762768, 2.47
813.138874, 2.48
815.51498, 2.49
817.891086, 2.5
820.267192, 2.51
822.643298, 2.52
825.019404, 2.53
827.39551, 2.54
829.771616, 2.55
832.147723, 2.56
834.523829, 2.57
836.899935, 2.58
839.276041, 2.59
841.652147, 2.6
844.028253, 2.61
846.404359, 2.62
848.780465, 2.63
851.156571, 2.64
853.532677, 2.65
855.908783, 2.66
858.284889, 2.67
860.660995, 2.68
863.037101, 2.69
865.413207, 2.7
867.789313, 2.71
870.165419, 2.72
872.541525, 2.73
874.917631, 2.74
877.293738, 2.75
879.669844, 2.76
882.04595, 2.77
884.422056, 2.78
886.798162, 2.79
889.174268, 2.8
891.550374, 2.81
893.92648, 2.82
896.302586, 2.83
898.678692, 2.84
901.054798, 2.85
903.430904, 2.86
905.80701, 2.87
908.183116, 2.88
910.559222, 2.89
912.935328, 2.9
915.311434, 2.91
917.68754, 2.92
920.063646, 2.93
922.439753, 2.94
924.815859, 2.95
927.191965, 2.96
929.568071, 2.97
931.944177, 2.98
934.320283, 2.99
936.696389, 3

*MATERIAL, NAME=STEEL
*ELASTIC
210000., 0.3
*SOLID SECTION, ELSET=SHEET, MATERIAL=AL
*SOLID SECTION, ELSET=TOOL, MATERIAL=STEEL
*SURFACE INTERACTION, NAME=SI
*SURFACE BEHAVIOR, PRESSURE-OVERCLOSURE=LINEAR
2.8e+06, 0.01
*FRICTION
0.1, 2.8e+06
*CONTACT PAIR, INTERACTION=SI, TYPE=SURFACE TO SURFACE
SSLAVE, SMASTER
*STEP, NLGEOM, INC=100000
*STATIC
0.025, 1.0, 2.5e-06, 0.025
*BOUNDARY
NSHEET, 2, 2, 0.0
CLAMP, 1, 1, 0.0
CLAMP, 3, 3, 0.0
*BOUNDARY
PUNCH, 1, 2, 0.0
PUNCH, 3, 3, -4.0
*NODE PRINT, NSET=PUNCH, TOTALS=ONLY
RF
*NODE PRINT, NSET=NTOP
U
*END STEP
*STEP, NLGEOM, INC=100000
*STATIC
0.02, 1.0, 2e-06, 0.02
*BOUNDARY
NSHEET, 2, 2, 0.0
CLAMP, 1, 1, 0.0
CLAMP, 3, 3, 0.0
*BOUNDARY
PUNCH, 1, 2, 0.0
PUNCH, 3, 3, 1.0
*NODE PRINT, NSET=PUNCH, TOTALS=ONLY
RF
*NODE PRINT, NSET=NTOP
U
*END STEP
*STEP, NLGEOM, INC=100000
*STATIC
0.05, 1.0, 1e-7, 0.05
*BOUNDARY, OP=NEW
NSHEET, 2, 2, 0.0
PUNCH, 1, 2, 0.0
PUNCH, 3, 3, 1.0
SUPA, 1, 1, 0.0
SUPA, 3, 3, 0.0
SUPB, 3, 3, 0.0
*NODE PRINT, NSET=PUNCH, TOTALS=ONLY
RF
*NODE PRINT, NSET=NTOP
U
*END STEP
