*HEADING
punch cross-check
*NODE, NSET=NSHEET
1, -20, 0, -1
2, -19, 0, -1
3, -18, 0, -1
4, -17, 0, -1
5, -16, 0, -1
6, -15, 0, -1
7, -14, 0, -1
8, -13, 0, -1
9, -12, 0, -1
10, -11, 0, -1
11, -10, 0, -1
12, -9, 0, -1
13, -8, 0, -1
14, -7, 0, -1
15, -6, 0, -1
16, -5, 0, -1
17, -4, 0, -1
18, -3, 0, -1
19, -2, 0, -1
20, -1, 0, -1
21, 0, 0, -1
22, 1, 0, -1
23, 2, 0, -1
24, 3, 0, -1
25, 4, 0, -1
26, 5, 0, -1
27, 6, 0, -1
28, 7, 0, -1
29, 8, 0, -1
30, 9, 0, -1
31, 10, 0, -1
32, 11, 0, -1
33, 12, 0, -1
34, 13, 0, -1
35, 14, 0, -1
36, 15, 0, -1
37, 16, 0, -1
38, 17, 0, -1
39, 18, 0, -1
40, 19, 0, -1
41, 20, 0, -1
42, -20, 1, -1
43, -19, 1, -1
44, -18, 1, -1
45, -17, 1, -1
46, -16, 1, -1
47, -15, 1, -1
48, -14, 1, -1
49, -13, 1, -1
50, -12, 1, -1
51, -11, 1, -1
52, -10, 1, -1
53, -9, 1, -1
54, -8, 1, -1
55, -7, 1, -1
56, -6, 1, -1
57, -5, 1, -1
58, -4, 1, -1
59, -3, 1, -1
60, -2, 1, -1
61, -1, 1, -1
62, 0, 1, -1
63, 1, 1, -1
64, 2, 1, -1
65, 3, 1, -1
66, 4, 1, -1
67, 5, 1, -1
68, 6, 1, -1
69, 7, 1, -1
70, 8, 1, -1
71, 9, 1, -1
72, 10, 1, -1
73, 11, 1, -1
74, 12, 1, -1
75, 13, 1, -1
76, 14, 1, -1
77, 15, 1, -1
78, 16, 1, -1
79, 17, 1, -1
80, 18, 1, -1
81, 19, 1, -1
82, 20, 1, -1
83, -20, 0, -0.5
84, -19, 0, -0.5
85, -18, 0, -0.5
86, -17, 0, -0.5
87, -16, 0, -0.5
88, -15, 0, -0.5
89, -14, 0, -0.5
90, -13, 0, -0.5
91, -12, 0, -0.5
92, -11, 0, -0.5
93, -10, 0, -0.5
94, -9, 0, -0.5
95, -8, 0, -0.5
96, -7, 0, -0.5
97, -6, 0, -0.5
98, -5, 0, -0.5
99, -4, 0, -0.5
100, -3, 0, -0.5
101, -2, 0, -0.5
102, -1, 0, -0.5
103, 0, 0, -0.5
104, 1, 0, -0.5
105, 2, 0, -0.5
106, 3, 0, -0.5
107, 4, 0, -0.5
108, 5, 0, -0.5
109, 6, 0, -0.5
110, 7, 0, -0.5
111, 8, 0, -0.5
112, 9, 0, -0.5
113, 10, 0, -0.5
114, 11, 0, -0.5
115, 12, 0, -0.5
116, 13, 0, -0.5
117, 14, 0, -0.5
118, 15, 0, -0.5
119, 16, 0, -0.5
120, 17, 0, -0.5
121, 18, 0, -0.5
122, 19, 0, -0.5
123, 20, 0, -0.5
124, -20, 1, -0.5
125, -19, 1, -0.5
126, -18, 1, -0.5
127, -17, 1, -0.5
128, -16, 1, -0.5
129, -15, 1, -0.5
130, -14, 1, -0.5
131, -13, 1, -0.5
132, -12, 1, -0.5
133, -11, 1, -0.5
134, -10, 1, -0.5
135, -9, 1, -0.5
136, -8, 1, -0.5
137, -7, 1, -0.5
138, -6, 1, -0.5
139, -5, 1, -0.5
140, -4, 1, -0.5
141, -3, 1, -0.5
142, -2, 1, -0.5
143, -1, 1, -0.5
144, 0, 1, -0.5
145, 1, 1, -0.5
146, 2, 1, -0.5
147, 3, 1, -0.5
148, 4, 1, -0.5
149, 5, 1, -0.5
150, 6, 1, -0.5
151, 7, 1, -0.5
152, 8, 1, -0.5
153, 9, 1, -0.5
154, 10, 1, -0.5
155, 11, 1, -0.5
156, 12, 1, -0.5
157, 13, 1, -0.5
158, 14, 1, -0.5
159, 15, 1, -0.5
160, 16, 1, -0.5
161, 17, 1, -0.5
162, 18, 1, -0.5
163, 19, 1, -0.5
164, 20, 1, -0.5
165, -20, 0, 0
166, -19, 0, 0
167, -18, 0, 0
168, -17, 0, 0
169, -16, 0, 0
170, -15, 0, 0
171, -14, 0, 0
172, -13, 0, 0
173, -12, 0, 0
174, -11, 0, 0
175, -10, 0, 0
176, -9, 0, 0
177, -8, 0, 0
178, -7, 0, 0
179, -6, 0, 0
180, -5, 0, 0
181, -4, 0, 0
182, -3, 0, 0
183, -2, 0, 0
184, -1, 0, 0
185, 0, 0, 0
186, 1, 0, 0
187, 2, 0, 0
188, 3, 0, 0
189, 4, 0, 0
190, 5, 0, 0
191, 6, 0, 0
192, 7, 0, 0
193, 8, 0, 0
194, 9, 0, 0
195, 10, 0, 0
196, 11, 0, 0
197, 12, 0, 0
198, 13, 0, 0
199, 14, 0, 0
200, 15, 0, 0
201, 16, 0, 0
202, 17, 0, 0
203, 18, 0, 0
204, 19, 0, 0
205, 20, 0, 0
206, -20, 1, 0
207, -19, 1, 0
208, -18, 1, 0
209, -17, 1, 0
210, -16, 1, 0
211, -15, 1, 0
212, -14, 1, 0
213, -13, 1, 0
214, -12, 1, 0
215, -11, 1, 0
216, -10, 1, 0
217, -9, 1, 0
218, -8, 1, 0
219, -7, 1, 0
220, -6, 1, 0
221, -5, 1, 0
222, -4, 1, 0
223, -3, 1, 0
224, -2, 1, 0
225, -1, 1, 0
226, 0, 1, 0
227, 1, 1, 0
228, 2, 1, 0
229, 3, 1, 0
230, 4, 1, 0
231, 5, 1, 0
232, 6, 1, 0
233, 7, 1, 0
234, 8, 1, 0
235, 9, 1, 0
236, 10, 1, 0
237, 11, 1, 0
238, 12, 1, 0
239, 13, 1, 0
240, 14, 1, 0
241, 15, 1, 0
242, 16, 1, 0
243, 17, 1, 0
244, 18, 1, 0
245, 19, 1, 0
246, 20, 1, 0
*NODE, NSET=PUNCH
247, -3.93923101205, -1, 4.69459271067
248, -3.95075336238, -1, 4.62573786016
249, -3.96107227497, -1, 4.55669240384
250, -3.97018460657, -1, 4.48747737362
251, -3.97808758147, -1, 4.41811385307
252, -3.98477879237, -1, 4.34862297099
253, -3.99025620104, -1, 4.27902589498
254, -3.99451813902, -1, 4.20934382497
255, -3.99756330808, -1, 4.13959798681
256, -3.99939078063, -1, 4.06980962575
257, -4, -1, 4
258, -3.99939078063, -1, 3.93019037425
259, -3.99756330808, -1, 3.86040201319
260, -3.99451813902, -1, 3.79065617503
261, -3.99025620104, -1, 3.72097410502
262, -3.98477879237, -1, 3.65137702901
263, -3.97808758147, -1, 3.58188614693
264, -3.97018460657, -1, 3.51252262638
265, -3.96107227497, -1, 3.44330759616
266, -3.95075336238, -1, 3.37426213984
267, -3.93923101205, -1, 3.30540728933
268, -3.92650873379, -1, 3.23676401849
269, -3.91259040294, -1, 3.16835323673
270, -3.89748025914, -1, 3.10019578262
271, -3.8811829051, -1, 3.0323124176
272, -3.86370330516, -1, 2.96472381959
273, -3.84504678375, -1, 2.89745057673
274, -3.82521902385, -1, 2.83051318111
275, -3.80422606518, -1, 2.7639320225
276, -3.7820743024, -1, 2.69772738217
277, -3.75877048314, -1, 2.6319194267
278, -3.73432170599, -1, 2.56652820182
279, -3.70873541827, -1, 2.50157362634
280, -3.68201941381, -1, 2.43707548604
281, -3.65418183057, -1, 2.3730534277
282, -3.62523114815, -1, 2.30952695304
283, -3.5951761852, -1, 2.24651541284
284, -3.56402609675, -1, 2.18403800104
285, -3.53179037144, -1, 2.12211374886
286, -3.49847882856, -1, 2.06076151901
287, -3.46410161514, -1, 2
288, -3.42866920281, -1, 1.93984770036
289, -3.39219238463, -1, 1.88032294307
290, -3.35468227178, -1, 1.82144385994
291, -3.31615029022, -1, 1.76322838612
292, -3.27660817716, -1, 1.7056942546
293, -3.2360679775, -1, 1.64885899083
294, -3.19454204019, -1, 1.59273990739
295, -3.15204301443, -1, 1.5373540987
296, -3.10858384583, -1, 1.4827184358
297, -3.06417777248, -1, 1.42884956125
298, -3.01883832089, -1, 1.37576388404
299, -2.97257930191, -1, 1.32347757456
300, -2.92541480648, -1, 1.27200655975
301, -2.87735920135, -1, 1.22136651816
302, -2.82842712475, -1, 1.17157287525
303, -2.77863348184, -1, 1.12264079865
304, -2.72799344025, -1, 1.07458519352
305, -2.67652242544, -1, 1.02742069809
306, -2.62423611596, -1, 0.981161679109
307, -2.57115043875, -1, 0.935822227524
308, -2.5172815642, -1, 0.891416154172
309, -2.4626459013, -1, 0.847956985573
310, -2.40726009261, -1, 0.805457959811
311, -2.35114100917, -1, 0.7639320225
312, -2.2943057454, -1, 0.723391822844
313, -2.23677161388, -1, 0.68384970978
314, -2.17855614006, -1, 0.645317728218
315, -2.11967705693, -1, 0.607807615374
316, -2.06015229964, -1, 0.571330797192
317, -2, -1, 0.535898384862
318, -1.93923848099, -1, 0.501521171442
319, -1.87788625114, -1, 0.468209628564
320, -1.81596199896, -1, 0.435973903247
321, -1.75348458716, -1, 0.404823814803
322, -1.69047304696, -1, 0.374768851853
323, -1.6269465723, -1, 0.34581816943
324, -1.56292451396, -1, 0.31798058619
325, -1.49842637366, -1, 0.291264581733
326, -1.43347179818, -1, 0.265678294011
327, -1.3680805733, -1, 0.241229516856
328, -1.30227261783, -1, 0.217925697603
329, -1.2360679775, -1, 0.195773934819
330, -1.16948681889, -1, 0.174780976148
331, -1.10254942327, -1, 0.154953216247
332, -1.03527618041, -1, 0.136296694844
333, -0.967687582399, -1, 0.118817094896
334, -0.899804217375, -1, 0.102519740859
335, -0.831646763271, -1, 0.0874095970648
336, -0.763235981506, -1, 0.0734912662093
337, -0.694592710668, -1, 0.0607689879512
338, -0.625737860161, -1, 0.0492466376194
339, -0.55669240384, -1, 0.0389277250337
340, -0.487477373621, -1, 0.0298153934347
341, -0.418113853071, -1, 0.0219124185269
342, -0.348622970991, -1, 0.015221207633
343, -0.279025894977, -1, 0.0097437989607
344, -0.209343824972, -1, 0.0054818609817
345, -0.13959798681, -1, 0.00243669192362
346, -0.0698096257491, -1, 0.000609219374435
347, 0, -1, 0
348, 0.0698096257491, -1, 0.000609219374435
349, 0.13959798681, -1, 0.00243669192362
350, 0.209343824972, -1, 0.0054818609817
351, 0.279025894977, -1, 0.0097437989607
352, 0.348622970991, -1, 0.015221207633
353, 0.418113853071, -1, 0.0219124185269
354, 0.487477373621, -1, 0.0298153934347
355, 0.55669240384, -1, 0.0389277250337
356, 0.625737860161, -1, 0.0492466376194
357, 0.694592710668, -1, 0.0607689879512
358, 0.763235981506, -1, 0.0734912662093
359, 0.831646763271, -1, 0.0874095970648
360, 0.899804217375, -1, 0.102519740859
361, 0.967687582399, -1, 0.118817094896
362, 1.03527618041, -1, 0.136296694844
363, 1.10254942327, -1, 0.154953216247
364, 1.16948681889, -1, 0.174780976148
365, 1.2360679775, -1, 0.195773934819
366, 1.30227261783, -1, 0.217925697603
367, 1.3680805733, -1, 0.241229516856
368, 1.43347179818, -1, 0.265678294011
369, 1.49842637366, -1, 0.291264581733
370, 1.56292451396, -1, 0.31798058619
371, 1.6269465723, -1, 0.34581816943
372, 1.69047304696, -1, 0.374768851853
373, 1.75348458716, -1, 0.404823814803
374, 1.81596199896, -1, 0.435973903247
375, 1.87788625114, -1, 0.468209628564
376, 1.93923848099, -1, 0.501521171442
377, 2, -1, 0.535898384862
378, 2.06015229964, -1, 0.571330797192
379, 2.11967705693, -1, 0.607807615374
380, 2.17855614006, -1, 0.645317728218
381, 2.23677161388, -1, 0.68384970978
382, 2.2943057454, -1, 0.723391822844
383, 2.35114100917, -1, 0.7639320225
384, 2.40726009261, -1, 0.805457959811
385, 2.4626459013, -1, 0.847956985573
386, 2.5172815642, -1, 0.891416154172
387, 2.57115043875, -1, 0.935822227524
388, 2.62423611596, -1, 0.981161679109
389, 2.67652242544, -1, 1.02742069809
390, 2.72799344025, -1, 1.07458519352
391, 2.77863348184, -1, 1.12264079865
392, 2.82842712475, -1, 1.17157287525
393, 2.87735920135, -1, 1.22136651816
394, 2.92541480648, -1, 1.27200655975
395, 2.97257930191, -1, 1.32347757456
396, 3.01883832089, -1, 1.37576388404
397, 3.06417777248, -1, 1.42884956125
398, 3.10858384583, -1, 1.4827184358
399, 3.15204301443, -1, 1.5373540987
400, 3.19454204019, -1, 1.59273990739
401, 3.2360679775, -1, 1.64885899083
402, 3.27660817716, -1, 1.7056942546
403, 3.31615029022, -1, 1.76322838612
404, 3.35468227178, -1, 1.82144385994
405, 3.39219238463, -1, 1.88032294307
406, 3.42866920281, -1, 1.93984770036
407, 3.46410161514, -1, 2
408, 3.49847882856, -1, 2.06076151901
409, 3.53179037144, -1, 2.12211374886
410, 3.56402609675, -1, 2.18403800104
411, 3.5951761852, -1, 2.24651541284
412, 3.62523114815, -1, 2.30952695304
413, 3.65418183057, -1, 2.3730534277
414, 3.68201941381, -1, 2.43707548604
415, 3.70873541827, -1, 2.50157362634
416, 3.73432170599, -1, 2.56652820182
417, 3.75877048314, -1, 2.6319194267
418, 3.7820743024, -1, 2.69772738217
419, 3.80422606518, -1, 2.7639320225
420, 3.82521902385, -1, 2.83051318111
421, 3.84504678375, -1, 2.89745057673
422, 3.86370330516, -1, 2.96472381959
423, 3.8811829051, -1, 3.0323124176
424, 3.89748025914, -1, 3.10019578262
425, 3.91259040294, -1, 3.16835323673
426, 3.92650873379, -1, 3.23676401849
427, 3.93923101205, -1, 3.30540728933
428, 3.95075336238, -1, 3.37426213984
429, 3.96107227497, -1, 3.44330759616
430, 3.97018460657, -1, 3.51252262638
431, 3.97808758147, -1, 3.58188614693
432, 3.98477879237, -1, 3.65137702901
433, 3.99025620104, -1, 3.72097410502
434, 3.99451813902, -1, 3.79065617503
435, 3.99756330808, -1, 3.86040201319
436, 3.99939078063, -1, 3.93019037425
437, 4, -1, 4
438, 3.99939078063, -1, 4.06980962575
439, 3.99756330808, -1, 4.13959798681
440, 3.99451813902, -1, 4.20934382497
441, 3.99025620104, -1, 4.27902589498
442, 3.98477879237, -1, 4.34862297099
443, 3.97808758147, -1, 4.41811385307
444, 3.97018460657, -1, 4.48747737362
445, 3.96107227497, -1, 4.55669240384
446, 3.95075336238, -1, 4.62573786016
447, 3.93923101205, -1, 4.69459271067
448, -3.93923101205, 2, 4.69459271067
449, -3.95075336238, 2, 4.62573786016
450, -3.96107227497, 2, 4.55669240384
451, -3.97018460657, 2, 4.48747737362
452, -3.97808758147, 2, 4.41811385307
453, -3.98477879237, 2, 4.34862297099
454, -3.99025620104, 2, 4.27902589498
455, -3.99451813902, 2, 4.20934382497
456, -3.99756330808, 2, 4.13959798681
457, -3.99939078063, 2, 4.06980962575
458, -4, 2, 4
459, -3.99939078063, 2, 3.93019037425
460, -3.99756330808, 2, 3.86040201319
461, -3.99451813902, 2, 3.79065617503
462, -3.99025620104, 2, 3.72097410502
463, -3.98477879237, 2, 3.65137702901
464, -3.97808758147, 2, 3.58188614693
465, -3.97018460657, 2, 3.51252262638
466, -3.96107227497, 2, 3.44330759616
467, -3.95075336238, 2, 3.37426213984
468, -3.93923101205, 2, 3.30540728933
469, -3.92650873379, 2, 3.23676401849
470, -3.91259040294, 2, 3.16835323673
471, -3.89748025914, 2, 3.10019578262
472, -3.8811829051, 2, 3.0323124176
473, -3.86370330516, 2, 2.96472381959
474, -3.84504678375, 2, 2.89745057673
475, -3.82521902385, 2, 2.83051318111
476, -3.80422606518, 2, 2.7639320225
477, -3.7820743024, 2, 2.69772738217
478, -3.75877048314, 2, 2.6319194267
479, -3.73432170599, 2, 2.56652820182
480, -3.70873541827, 2, 2.50157362634
481, -3.68201941381, 2, 2.43707548604
482, -3.65418183057, 2, 2.3730534277
483, -3.62523114815, 2, 2.30952695304
484, -3.5951761852, 2, 2.24651541284
485, -3.56402609675, 2, 2.18403800104
486, -3.53179037144, 2, 2.12211374886
487, -3.49847882856, 2, 2.06076151901
488, -3.46410161514, 2, 2
489, -3.42866920281, 2, 1.93984770036
490, -3.39219238463, 2, 1.88032294307
491, -3.35468227178, 2, 1.82144385994
492, -3.31615029022, 2, 1.76322838612
493, -3.27660817716, 2, 1.7056942546
494, -3.2360679775, 2, 1.64885899083
495, -3.19454204019, 2, 1.59273990739
496, -3.15204301443, 2, 1.5373540987
497, -3.10858384583, 2, 1.4827184358
498, -3.06417777248, 2, 1.42884956125
499, -3.01883832089, 2, 1.37576388404
500, -2.97257930191, 2, 1.32347757456
501, -2.92541480648, 2, 1.27200655975
502, -2.87735920135, 2, 1.22136651816
503, -2.82842712475, 2, 1.17157287525
504, -2.77863348184, 2, 1.12264079865
505, -2.72799344025, 2, 1.07458519352
506, -2.67652242544, 2, 1.02742069809
507, -2.62423611596, 2, 0.981161679109
508, -2.57115043875, 2, 0.935822227524
509, -2.5172815642, 2, 0.891416154172
510, -2.4626459013, 2, 0.847956985573
511, -2.40726009261, 2, 0.805457959811
512, -2.35114100917, 2, 0.7639320225
513, -2.2943057454, 2, 0.723391822844
514, -2.23677161388, 2, 0.68384970978
515, -2.17855614006, 2, 0.645317728218
516, -2.11967705693, 2, 0.607807615374
517, -2.06015229964, 2, 0.571330797192
518, -2, 2, 0.535898384862
519, -1.93923848099, 2, 0.501521171442
520, -1.87788625114, 2, 0.468209628564
521, -1.81596199896, 2, 0.435973903247
522, -1.75348458716, 2, 0.404823814803
523, -1.69047304696, 2, 0.374768851853
524, -1.6269465723, 2, 0.34581816943
525, -1.56292451396, 2, 0.31798058619
526, -1.49842637366, 2, 0.291264581733
527, -1.43347179818, 2, 0.265678294011
528, -1.3680805733, 2, 0.241229516856
529, -1.30227261783, 2, 0.217925697603
530, -1.2360679775, 2, 0.195773934819
531, -1.16948681889, 2, 0.174780976148
532, -1.10254942327, 2, 0.154953216247
533, -1.03527618041, 2, 0.136296694844
534, -0.967687582399, 2, 0.118817094896
535, -0.899804217375, 2, 0.102519740859
536, -0.831646763271, 2, 0.0874095970648
537, -0.763235981506, 2, 0.0734912662093
538, -0.694592710668, 2, 0.0607689879512
539, -0.625737860161, 2, 0.0492466376194
540, -0.55669240384, 2, 0.0389277250337
541, -0.487477373621, 2, 0.0298153934347
542, -0.418113853071, 2, 0.0219124185269
543, -0.348622970991, 2, 0.015221207633
544, -0.279025894977, 2, 0.0097437989607
545, -0.209343824972, 2, 0.0054818609817
546, -0.13959798681, 2, 0.00243669192362
547, -0.0698096257491, 2, 0.000609219374435
548, 0, 2, 0
549, 0.0698096257491, 2, 0.000609219374435
550, 0.13959798681, 2, 0.00243669192362
551, 0.209343824972, 2, 0.0054818609817
552, 0.279025894977, 2, 0.0097437989607
553, 0.348622970991, 2, 0.015221207633
554, 0.418113853071, 2, 0.0219124185269
555, 0.487477373621, 2, 0.0298153934347
556, 0.55669240384, 2, 0.0389277250337
557, 0.625737860161, 2, 0.0492466376194
558, 0.694592710668, 2, 0.0607689879512
559, 0.763235981506, 2, 0.0734912662093
560, 0.831646763271, 2, 0.0874095970648
561, 0.899804217375, 2, 0.102519740859
562, 0.967687582399, 2, 0.118817094896
563, 1.03527618041, 2, 0.136296694844
564, 1.10254942327, 2, 0.154953216247
565, 1.16948681889, 2, 0.174780976148
566, 1.2360679775, 2, 0.195773934819
567, 1.30227261783, 2, 0.217925697603
568, 1.3680805733, 2, 0.241229516856
569, 1.43347179818, 2, 0.265678294011
570, 1.49842637366, 2, 0.291264581733
571, 1.56292451396, 2, 0.31798058619
572, 1.6269465723, 2, 0.34581816943
573, 1.69047304696, 2, 0.374768851853
574, 1.75348458716, 2, 0.404823814803
575, 1.81596199896, 2, 0.435973903247
576, 1.87788625114, 2, 0.468209628564
577, 1.93923848099, 2, 0.501521171442
578, 2, 2, 0.535898384862
579, 2.06015229964, 2, 0.571330797192
580, 2.11967705693, 2, 0.607807615374
581, 2.17855614006, 2, 0.645317728218
582, 2.23677161388, 2, 0.68384970978
583, 2.2943057454, 2, 0.723391822844
584, 2.35114100917, 2, 0.7639320225
585, 2.40726009261, 2, 0.805457959811
586, 2.4626459013, 2, 0.847956985573
587, 2.5172815642, 2, 0.891416154172
588, 2.57115043875, 2, 0.935822227524
589, 2.62423611596, 2, 0.981161679109
590, 2.67652242544, 2, 1.02742069809
591, 2.72799344025, 2, 1.07458519352
592, 2.77863348184, 2, 1.12264079865
593, 2.82842712475, 2, 1.17157287525
594, 2.87735920135, 2, 1.22136651816
595, 2.92541480648, 2, 1.27200655975
596, 2.97257930191, 2, 1.32347757456
597, 3.01883832089, 2, 1.37576388404
598, 3.06417777248, 2, 1.42884956125
599, 3.10858384583, 2, 1.4827184358
600, 3.15204301443, 2, 1.5373540987
601, 3.19454204019, 2, 1.59273990739
602, 3.2360679775, 2, 1.64885899083
603, 3.27660817716, 2, 1.7056942546
604, 3.31615029022, 2, 1.76322838612
605, 3.35468227178, 2, 1.82144385994
606, 3.39219238463, 2, 1.88032294307
607, 3.42866920281, 2, 1.93984770036
608, 3.46410161514, 2, 2
609, 3.49847882856, 2, 2.06076151901
610, 3.53179037144, 2, 2.12211374886
611, 3.56402609675, 2, 2.18403800104
612, 3.5951761852, 2, 2.24651541284
613, 3.62523114815, 2, 2.30952695304
614, 3.65418183057, 2, 2.3730534277
615, 3.68201941381, 2, 2.43707548604
616, 3.70873541827, 2, 2.50157362634
617, 3.73432170599, 2, 2.56652820182
618, 3.75877048314, 2, 2.6319194267
619, 3.7820743024, 2, 2.69772738217
620, 3.80422606518, 2, 2.7639320225
621, 3.82521902385, 2, 2.83051318111
622, 3.84504678375, 2, 2.89745057673
623, 3.86370330516, 2, 2.96472381959
624, 3.8811829051, 2, 3.0323124176
625, 3.89748025914, 2, 3.10019578262
626, 3.91259040294, 2, 3.16835323673
627, 3.92650873379, 2, 3.23676401849
628, 3.93923101205, 2, 3.30540728933
629, 3.95075336238, 2, 3.37426213984
630, 3.96107227497, 2, 3.44330759616
631, 3.97018460657, 2, 3.51252262638
632, 3.97808758147, 2, 3.58188614693
633, 3.98477879237, 2, 3.65137702901
634, 3.99025620104, 2, 3.72097410502
635, 3.99451813902, 2, 3.79065617503
636, 3.99756330808, 2, 3.86040201319
637, 3.99939078063, 2, 3.93019037425
638, 4, 2, 4
639, 3.99939078063, 2, 4.06980962575
640, 3.99756330808, 2, 4.13959798681
641, 3.99451813902, 2, 4.20934382497
642, 3.99025620104, 2, 4.27902589498
643, 3.98477879237, 2, 4.34862297099
644, 3.97808758147, 2, 4.41811385307
645, 3.97018460657, 2, 4.48747737362
646, 3.96107227497, 2, 4.55669240384
647, 3.95075336238, 2, 4.62573786016
648, 3.93923101205, 2, 4.69459271067
649, -3.44682713554, -1, 4.60776862183
650, -3.45690919208, -1, 4.54752062764
651, -3.4659382406, -1, 4.48710585336
652, -3.47391153074, -1, 4.42654270192
653, -3.48082663379, -1, 4.36584962144
654, -3.48668144332, -1, 4.30504509962
655, -3.49147417591, -1, 4.2441476581
656, -3.49520337164, -1, 4.18317584685
657, -3.49786789457, -1, 4.12214823846
658, -3.49946693305, -1, 4.06108342253
659, -3.5, -1, 4
660, -3.49946693305, -1, 3.93891657747
661, -3.49786789457, -1, 3.87785176154
662, -3.49520337164, -1, 3.81682415315
663, -3.49147417591, -1, 3.7558523419
664, -3.48668144332, -1, 3.69495490038
665, -3.48082663379, -1, 3.63415037856
666, -3.47391153074, -1, 3.57345729808
667, -3.4659382406, -1, 3.51289414664
668, -3.45690919208, -1, 3.45247937236
669, -3.44682713554, -1, 3.39223137817
670, -3.43569514207, -1, 3.33216851618
671, -3.42351660257, -1, 3.27230908214
672, -3.41029522675, -1, 3.2126713098
673, -3.39603504197, -1, 3.1532733654
674, -3.38074039201, -1, 3.09413334214
675, -3.36441593578, -1, 3.03526925464
676, -3.34706664587, -1, 2.97669903347
677, -3.32869780703, -1, 2.91844051969
678, -3.3093150146, -1, 2.8605114594
679, -3.28892417275, -1, 2.80292949836
680, -3.26753149274, -1, 2.74571217659
681, -3.24514349098, -1, 2.68887692304
682, -3.22176698708, -1, 2.63244105029
683, -3.19740910175, -1, 2.57642174923
684, -3.17207725463, -1, 2.52083608391
685, -3.14577916205, -1, 2.46570098624
686, -3.11852283466, -1, 2.41103325091
687, -3.09031657501, -1, 2.35684953025
688, -3.06116897499, -1, 2.30316632914
689, -3.03108891325, -1, 2.25
690, -3.00008555246, -1, 2.19736673781
691, -2.96816833655, -1, 2.14528257518
692, -2.93534698781, -1, 2.09376337745
693, -2.90163150394, -1, 2.04282483785
694, -2.86703215501, -1, 1.99248247277
695, -2.83155948031, -1, 1.94275161698
696, -2.79522428517, -1, 1.89364741897
697, -2.75803763762, -1, 1.84518483636
698, -2.7200108651, -1, 1.79737863133
699, -2.68115555092, -1, 1.7502433661
700, -2.64148353078, -1, 1.70379339853
701, -2.60100688917, -1, 1.65804287774
702, -2.55973795567, -1, 1.61300573978
703, -2.51768930119, -1, 1.56869570339
704, -2.47487373415, -1, 1.52512626585
705, -2.43130429661, -1, 1.48231069881
706, -2.38699426022, -1, 1.44026204433
707, -2.34195712226, -1, 1.39899311083
708, -2.29620660147, -1, 1.35851646922
709, -2.2497566339, -1, 1.31884444908
710, -2.20262136867, -1, 1.2799891349
711, -2.15481516364, -1, 1.24196236238
712, -2.10635258103, -1, 1.20477571483
713, -2.05724838302, -1, 1.16844051969
714, -2.00751752723, -1, 1.13296784499
715, -1.95717516215, -1, 1.09836849606
716, -1.90623662255, -1, 1.06465301219
717, -1.85471742482, -1, 1.03183166345
718, -1.80263326219, -1, 0.999914447543
719, -1.75, -1, 0.968911086754
720, -1.69683367086, -1, 0.938831025012
721, -1.64315046975, -1, 0.909683424994
722, -1.58896674909, -1, 0.881477165341
723, -1.53429901376, -1, 0.854220837953
724, -1.47916391609, -1, 0.827922745372
725, -1.42357825077, -1, 0.802590898251
726, -1.36755894971, -1, 0.778233012916
727, -1.31112307696, -1, 0.754856509016
728, -1.25428782341, -1, 0.73246850726
729, -1.19707050164, -1, 0.711075827249
730, -1.1394885406, -1, 0.690684985402
731, -1.08155948031, -1, 0.671302192967
732, -1.02330096653, -1, 0.652933354129
733, -0.964730745359, -1, 0.635584064216
734, -0.905866657859, -1, 0.619259607988
735, -0.846726634599, -1, 0.603964958034
736, -0.787328690204, -1, 0.589704773252
737, -0.727690917862, -1, 0.576483397432
738, -0.667831483818, -1, 0.564304857933
739, -0.607768621834, -1, 0.553172864457
740, -0.547520627641, -1, 0.543090807917
741, -0.48710585336, -1, 0.534061759405
742, -0.426542701918, -1, 0.526088469255
743, -0.365849621437, -1, 0.519173366211
744, -0.305045099617, -1, 0.513318556679
745, -0.244147658104, -1, 0.508525824091
746, -0.18317584685, -1, 0.504796628359
747, -0.122148238459, -1, 0.502132105433
748, -0.0610834225305, -1, 0.500533066953
749, 0, -1, 0.5
750, 0.0610834225305, -1, 0.500533066953
751, 0.122148238459, -1, 0.502132105433
752, 0.18317584685, -1, 0.504796628359
753, 0.244147658104, -1, 0.508525824091
754, 0.305045099617, -1, 0.513318556679
755, 0.365849621437, -1, 0.519173366211
756, 0.426542701918, -1, 0.526088469255
757, 0.48710585336, -1, 0.534061759405
758, 0.547520627641, -1, 0.543090807917
759, 0.607768621834, -1, 0.553172864457
760, 0.667831483818, -1, 0.564304857933
761, 0.727690917862, -1, 0.576483397432
762, 0.787328690204, -1, 0.589704773252
763, 0.846726634599, -1, 0.603964958034
764, 0.905866657859, -1, 0.619259607988
765, 0.964730745359, -1, 0.635584064216
766, 1.02330096653, -1, 0.652933354129
767, 1.08155948031, -1, 0.671302192967
768, 1.1394885406, -1, 0.690684985402
769, 1.19707050164, -1, 0.711075827249
770, 1.25428782341, -1, 0.73246850726
771, 1.31112307696, -1, 0.754856509016
772, 1.36755894971, -1, 0.778233012916
773, 1.42357825077, -1, 0.802590898251
774, 1.47916391609, -1, 0.827922745372
775, 1.53429901376, -1, 0.854220837953
776, 1.58896674909, -1, 0.881477165341
777, 1.64315046975, -1, 0.909683424994
778, 1.69683367086, -1, 0.938831025012
779, 1.75, -1, 0.968911086754
780, 1.80263326219, -1, 0.999914447543
781, 1.85471742482, -1, 1.03183166345
782, 1.90623662255, -1, 1.06465301219
783, 1.95717516215, -1, 1.09836849606
784, 2.00751752723, -1, 1.13296784499
785, 2.05724838302, -1, 1.16844051969
786, 2.10635258103, -1, 1.20477571483
787, 2.15481516364, -1, 1.24196236238
788, 2.20262136867, -1, 1.2799891349
789, 2.2497566339, -1, 1.31884444908
790, 2.29620660147, -1, 1.35851646922
791, 2.34195712226, -1, 1.39899311083
792, 2.38699426022, -1, 1.44026204433
793, 2.43130429661, -1, 1.48231069881
794, 2.47487373415, -1, 1.52512626585
795, 2.51768930119, -1, 1.56869570339
796, 2.55973795567, -1, 1.61300573978
797, 2.60100688917, -1, 1.65804287774
798, 2.64148353078, -1, 1.70379339853
799, 2.68115555092, -1, 1.7502433661
800, 2.7200108651, -1, 1.79737863133
801, 2.75803763762, -1, 1.84518483636
802, 2.79522428517, -1, 1.89364741897
803, 2.83155948031, -1, 1.94275161698
804, 2.86703215501, -1, 1.99248247277
805, 2.90163150394, -1, 2.04282483785
806, 2.93534698781, -1, 2.09376337745
807, 2.96816833655, -1, 2.14528257518
808, 3.00008555246, -1, 2.19736673781
809, 3.03108891325, -1, 2.25
810, 3.06116897499, -1, 2.30316632914
811, 3.09031657501, -1, 2.35684953025
812, 3.11852283466, -1, 2.41103325091
813, 3.14577916205, -1, 2.46570098624
814, 3.17207725463, -1, 2.52083608391
815, 3.19740910175, -1, 2.57642174923
816, 3.22176698708, -1, 2.63244105029
817, 3.24514349098, -1, 2.68887692304
818, 3.26753149274, -1, 2.74571217659
819, 3.28892417275, -1, 2.80292949836
820, 3.3093150146, -1, 2.8605114594
821, 3.32869780703, -1, 2.91844051969
822, 3.34706664587, -1, 2.97669903347
823, 3.36441593578, -1, 3.03526925464
824, 3.38074039201, -1, 3.09413334214
825, 3.39603504197, -1, 3.1532733654
826, 3.41029522675, -1, 3.2126713098
827, 3.42351660257, -1, 3.27230908214
828, 3.43569514207, -1, 3.33216851618
829, 3.44682713554, -1, 3.39223137817
830, 3.45690919208, -1, 3.45247937236
831, 3.4659382406, -1, 3.51289414664
832, 3.47391153074, -1, 3.57345729808
833, 3.48082663379, -1, 3.63415037856
834, 3.48668144332, -1, 3.69495490038
835, 3.49147417591, -1, 3.7558523419
836, 3.49520337164, -1, 3.81682415315
837, 3.49786789457, -1, 3.87785176154
838, 3.49946693305, -1, 3.93891657747
839, 3.5, -1, 4
840, 3.49946693305, -1, 4.06108342253
841, 3.49786789457, -1, 4.12214823846
842, 3.49520337164, -1, 4.18317584685
843, 3.49147417591, -1, 4.2441476581
844, 3.48668144332, -1, 4.30504509962
845, 3.48082663379, -1, 4.36584962144
846, 3.47391153074, -1, 4.42654270192
847, 3.4659382406, -1, 4.48710585336
848, 3.45690919208, -1, 4.54752062764
849, 3.44682713554, -1, 4.60776862183
850, -3.44682713554, 2, 4.60776862183
851, -3.45690919208, 2, 4.54752062764
852, -3.4659382406, 2, 4.48710585336
853, -3.47391153074, 2, 4.42654270192
854, -3.48082663379, 2, 4.36584962144
855, -3.48668144332, 2, 4.30504509962
856, -3.49147417591, 2, 4.2441476581
857, -3.49520337164, 2, 4.18317584685
858, -3.49786789457, 2, 4.12214823846
859, -3.49946693305, 2, 4.06108342253
860, -3.5, 2, 4
861, -3.49946693305, 2, 3.93891657747
862, -3.49786789457, 2, 3.87785176154
863, -3.49520337164, 2, 3.81682415315
864, -3.49147417591, 2, 3.7558523419
865, -3.48668144332, 2, 3.69495490038
866, -3.48082663379, 2, 3.63415037856
867, -3.47391153074, 2, 3.57345729808
868, -3.4659382406, 2, 3.51289414664
869, -3.45690919208, 2, 3.45247937236
870, -3.44682713554, 2, 3.39223137817
871, -3.43569514207, 2, 3.33216851618
872, -3.42351660257, 2, 3.27230908214
873, -3.41029522675, 2, 3.2126713098
874, -3.39603504197, 2, 3.1532733654
875, -3.38074039201, 2, 3.09413334214
876, -3.36441593578, 2, 3.03526925464
877, -3.34706664587, 2, 2.97669903347
878, -3.32869780703, 2, 2.91844051969
879, -3.3093150146, 2, 2.8605114594
880, -3.28892417275, 2, 2.80292949836
881, -3.26753149274, 2, 2.74571217659
882, -3.24514349098, 2, 2.68887692304
883, -3.22176698708, 2, 2.63244105029
884, -3.19740910175, 2, 2.57642174923
885, -3.17207725463, 2, 2.52083608391
886, -3.14577916205, 2, 2.46570098624
887, -3.11852283466, 2, 2.41103325091
888, -3.09031657501, 2, 2.35684953025
889, -3.06116897499, 2, 2.30316632914
890, -3.03108891325, 2, 2.25
891, -3.00008555246, 2, 2.19736673781
892, -2.96816833655, 2, 2.14528257518
893, -2.93534698781, 2, 2.09376337745
894, -2.90163150394, 2, 2.04282483785
895, -2.86703215501, 2, 1.99248247277
896, -2.83155948031, 2, 1.94275161698
897, -2.79522428517, 2, 1.89364741897
898, -2.75803763762, 2, 1.84518483636
899, -2.7200108651, 2, 1.79737863133
900, -2.68115555092, 2, 1.7502433661
901, -2.64148353078, 2, 1.70379339853
902, -2.60100688917, 2, 1.65804287774
903, -2.55973795567, 2, 1.61300573978
904, -2.51768930119, 2, 1.56869570339
905, -2.47487373415, 2, 1.52512626585
906, -2.43130429661, 2, 1.48231069881
907, -2.38699426022, 2, 1.44026204433
908, -2.34195712226, 2, 1.39899311083
909, -2.29620660147, 2, 1.35851646922
910, -2.2497566339, 2, 1.31884444908
911, -2.20262136867, 2, 1.2799891349
912, -2.15481516364, 2, 1.24196236238
913, -2.10635258103, 2, 1.20477571483
914, -2.05724838302, 2, 1.16844051969
915, -2.00751752723, 2, 1.13296784499
916, -1.95717516215, 2, 1.09836849606
917, -1.90623662255, 2, 1.06465301219
918, -1.85471742482, 2, 1.03183166345
919, -1.80263326219, 2, 0.999914447543
920, -1.75, 2, 0.968911086754
921, -1.69683367086, 2, 0.938831025012
922, -1.64315046975, 2, 0.909683424994
923, -1.58896674909, 2, 0.881477165341
924, -1.53429901376, 2, 0.854220837953
925, -1.47916391609, 2, 0.827922745372
926, -1.42357825077, 2, 0.802590898251
927, -1.36755894971, 2, 0.778233012916
928, -1.31112307696, 2, 0.754856509016
929, -1.25428782341, 2, 0.73246850726
930, -1.19707050164, 2, 0.711075827249
931, -1.1394885406, 2, 0.690684985402
932, -1.08155948031, 2, 0.671302192967
933, -1.02330096653, 2, 0.652933354129
934, -0.964730745359, 2, 0.635584064216
935, -0.905866657859, 2, 0.619259607988
936, -0.846726634599, 2, 0.603964958034
937, -0.787328690204, 2, 0.589704773252
938, -0.727690917862, 2, 0.576483397432
939, -0.667831483818, 2, 0.564304857933
940, -0.607768621834, 2, 0.553172864457
941, -0.547520627641, 2, 0.543090807917
942, -0.48710585336, 2, 0.534061759405
943, -0.426542701918, 2, 0.526088469255
944, -0.365849621437, 2, 0.519173366211
945, -0.305045099617, 2, 0.513318556679
946, -0.244147658104, 2, 0.508525824091
947, -0.18317584685, 2, 0.504796628359
948, -0.122148238459, 2, 0.502132105433
949, -0.0610834225305, 2, 0.500533066953
950, 0, 2, 0.5
951, 0.0610834225305, 2, 0.500533066953
952, 0.122148238459, 2, 0.502132105433
953, 0.18317584685, 2, 0.504796628359
954, 0.244147658104, 2, 0.508525824091
955, 0.305045099617, 2, 0.513318556679
956, 0.365849621437, 2, 0.519173366211
957, 0.426542701918, 2, 0.526088469255
958, 0.48710585336, 2, 0.534061759405
959, 0.547520627641, 2, 0.543090807917
960, 0.607768621834, 2, 0.553172864457
961, 0.667831483818, 2, 0.564304857933
962, 0.727690917862, 2, 0.576483397432
963, 0.787328690204, 2, 0.589704773252
964, 0.846726634599, 2, 0.603964958034
965, 0.905866657859, 2, 0.619259607988
966, 0.964730745359, 2, 0.635584064216
967, 1.02330096653, 2, 0.652933354129
968, 1.08155948031, 2, 0.671302192967
969, 1.1394885406, 2, 0.690684985402
970, 1.19707050164, 2, 0.711075827249
971, 1.25428782341, 2, 0.73246850726
972, 1.31112307696, 2, 0.754856509016
973, 1.36755894971, 2, 0.778233012916
974, 1.42357825077, 2, 0.802590898251
975, 1.47916391609, 2, 0.827922745372
976, 1.53429901376, 2, 0.854220837953
977, 1.58896674909, 2, 0.881477165341
978, 1.64315046975, 2, 0.909683424994
979, 1.69683367086, 2, 0.938831025012
980, 1.75, 2, 0.968911086754
981, 1.80263326219, 2, 0.999914447543
982, 1.85471742482, 2, 1.03183166345
983, 1.90623662255, 2, 1.06465301219
984, 1.95717516215, 2, 1.09836849606
985, 2.00751752723, 2, 1.13296784499
986, 2.05724838302, 2, 1.16844051969
987, 2.10635258103, 2, 1.20477571483
988, 2.15481516364, 2, 1.24196236238
989, 2.20262136867, 2, 1.2799891349
990, 2.2497566339, 2, 1.31884444908
991, 2.29620660147, 2, 1.35851646922
992, 2.34195712226, 2, 1.39899311083
993, 2.38699426022, 2, 1.44026204433
994, 2.43130429661, 2, 1.48231069881
995, 2.47487373415, 2, 1.52512626585
996, 2.51768930119, 2, 1.56869570339
997, 2.55973795567, 2, 1.61300573978
998, 2.60100688917, 2, 1.65804287774
999, 2.64148353078, 2, 1.70379339853
1000, 2.68115555092, 2, 1.7502433661
1001, 2.7200108651, 2, 1.79737863133
1002, 2.75803763762, 2, 1.84518483636
1003, 2.79522428517, 2, 1.89364741897
1004, 2.83155948031, 2, 1.94275161698
1005, 2.86703215501, 2, 1.99248247277
1006, 2.90163150394, 2, 2.04282483785
1007, 2.93534698781, 2, 2.09376337745
1008, 2.96816833655, 2, 2.14528257518
1009, 3.00008555246, 2, 2.19736673781
1010, 3.03108891325, 2, 2.25
1011, 3.06116897499, 2, 2.30316632914
1012, 3.09031657501, 2, 2.35684953025
1013, 3.11852283466, 2, 2.41103325091
1014, 3.14577916205, 2, 2.46570098624
1015, 3.17207725463, 2, 2.52083608391
1016, 3.19740910175, 2, 2.57642174923
1017, 3.22176698708, 2, 2.63244105029
1018, 3.24514349098, 2, 2.68887692304
1019, 3.26753149274, 2, 2.74571217659
1020, 3.28892417275, 2, 2.80292949836
1021, 3.3093150146, 2, 2.8605114594
1022, 3.32869780703, 2, 2.91844051969
1023, 3.34706664587, 2, 2.97669903347
1024, 3.36441593578, 2, 3.03526925464
1025, 3.38074039201, 2, 3.09413334214
1026, 3.39603504197, 2, 3.1532733654
1027, 3.41029522675, 2, 3.2126713098
1028, 3.42351660257, 2, 3.27230908214
1029, 3.43569514207, 2, 3.33216851618
1030, 3.44682713554, 2, 3.39223137817
1031, 3.45690919208, 2, 3.45247937236
1032, 3.4659382406, 2, 3.51289414664
1033, 3.47391153074, 2, 3.57345729808
1034, 3.48082663379, 2, 3.63415037856
1035, 3.48668144332, 2, 3.69495490038
1036, 3.49147417591, 2, 3.7558523419
1037, 3.49520337164, 2, 3.81682415315
1038, 3.49786789457, 2, 3.87785176154
1039, 3.49946693305, 2, 3.93891657747
1040, 3.5, 2, 4
1041, 3.49946693305, 2, 4.06108342253
1042, 3.49786789457, 2, 4.12214823846
1043, 3.49520337164, 2, 4.18317584685
1044, 3.49147417591, 2, 4.2441476581
1045, 3.48668144332, 2, 4.30504509962
1046, 3.48082663379, 2, 4.36584962144
1047, 3.47391153074, 2, 4.42654270192
1048, 3.4659382406, 2, 4.48710585336
1049, 3.45690919208, 2, 4.54752062764
1050, 3.44682713554, 2, 4.60776862183
*ELEMENT, TYPE=C3D8I, ELSET=SHEET
1, 1, 2, 43, 42, 83, 84, 125, 124
2, 2, 3, 44, 43, 84, 85, 126, 125
3, 3, 4, 45, 44, 85, 86, 127, 126
4, 4, 5, 46, 45, 86, 87, 128, 127
5, 5, 6, 47, 46, 87, 88, 129, 128
6, 6, 7, 48, 47, 88, 89, 130, 129
7, 7, 8, 49, 48, 89, 90, 131, 130
8, 8, 9, 50, 49, 90, 91, 132, 131
9, 9, 10, 51, 50, 91, 92, 133, 132
10, 10, 11, 52, 51, 92, 93, 134, 133
11, 11, 12, 53, 52, 93, 94, 135, 134
12, 12, 13, 54, 53, 94, 95, 136, 135
13, 13, 14, 55, 54, 95, 96, 137, 136
14, 14, 15, 56, 55, 96, 97, 138, 137
15, 15, 16, 57, 56, 97, 98, 139, 138
16, 16, 17, 58, 57, 98, 99, 140, 139
17, 17, 18, 59, 58, 99, 100, 141, 140
18, 18, 19, 60, 59, 100, 101, 142, 141
19, 19, 20, 61, 60, 101, 102, 143, 142
20, 20, 21, 62, 61, 102, 103, 144, 143
21, 21, 22, 63, 62, 103, 104, 145, 144
22, 22, 23, 64, 63, 104, 105, 146, 145
23, 23, 24, 65, 64, 105, 106, 147, 146
24, 24, 25, 66, 65, 106, 107, 148, 147
25, 25, 26, 67, 66, 107, 108, 149, 148
26, 26, 27, 68, 67, 108, 109, 150, 149
27, 27, 28, 69, 68, 109, 110, 151, 150
28, 28, 29, 70, 69, 110, 111, 152, 151
29, 29, 30, 71, 70, 111, 112, 153, 152
30, 30, 31, 72, 71, 112, 113, 154, 153
31, 31, 32, 73, 72, 113, 114, 155, 154
32, 32, 33, 74, 73, 114, 115, 156, 155
33, 33, 34, 75, 74, 115, 116, 157, 156
34, 34, 35, 76, 75, 116, 117, 158, 157
35, 35, 36, 77, 76, 117, 118, 159, 158
36, 36, 37, 78, 77, 118, 119, 160, 159
37, 37, 38, 79, 78, 119, 120, 161, 160
38, 38, 39, 80, 79, 120, 121, 162, 161
39, 39, 40, 81, 80, 121, 122, 163, 162
40, 40, 41, 82, 81, 122, 123, 164, 163
41, 83, 84, 125, 124, 165, 166, 207, 206
42, 84, 85, 126, 125, 166, 167, 208, 207
43, 85, 86, 127, 126, 167, 168, 209, 208
44, 86, 87, 128, 127, 168, 169, 210, 209
45, 87, 88, 129, 128, 169, 170, 211, 210
46, 88, 89, 130, 129, 170, 171, 212, 211
47, 89, 90, 131, 130, 171, 172, 213, 212
48, 90, 91, 132, 131, 172, 173, 214, 213
49, 91, 92, 133, 132, 173, 174, 215, 214
50, 92, 93, 134, 133, 174, 175, 216, 215
51, 93, 94, 135, 134, 175, 176, 217, 216
52, 94, 95, 136, 135, 176, 177, 218, 217
53, 95, 96, 137, 136, 177, 178, 219, 218
54, 96, 97, 138, 137, 178, 179, 220, 219
55, 97, 98, 139, 138, 179, 180, 221, 220
56, 98, 99, 140, 139, 180, 181, 222, 221
57, 99, 100, 141, 140, 181, 182, 223, 222
58, 100, 101, 142, 141, 182, 183, 224, 223
59, 101, 102, 143, 142, 183, 184, 225, 224
60, 102, 103, 144, 143, 184, 185, 226, 225
61, 103, 104, 145, 144, 185, 186, 227, 226
62, 104, 105, 146, 145, 186, 187, 228, 227
63, 105, 106, 147, 146, 187, 188, 229, 228
64, 106, 107, 148, 147, 188, 189, 230, 229
65, 107, 108, 149, 148, 189, 190, 231, 230
66, 108, 109, 150, 149, 190, 191, 232, 231
67, 109, 110, 151, 150, 191, 192, 233, 232
68, 110, 111, 152, 151, 192, 193, 234, 233
69, 111, 112, 153, 152, 193, 194, 235, 234
70, 112, 113, 154, 153, 194, 195, 236, 235
71, 113, 114, 155, 154, 195, 196, 237, 236
72, 114, 115, 156, 155, 196, 197, 238, 237
73, 115, 116, 157, 156, 197, 198, 239, 238
74, 116, 117, 158, 157, 198, 199, 240, 239
75, 117, 118, 159, 158, 199, 200, 241, 240
76, 118, 119, 160, 159, 200, 201, 242, 241
77, 119, 120, 161, 160, 201, 202, 243, 242
78, 120, 121, 162, 161, 202, 203, 244, 243
79, 121, 122, 163, 162, 203, 204, 245, 244
80, 122, 123, 164, 163, 204, 205, 246, 245
*ELEMENT, TYPE=C3D8, ELSET=TOOL
81, 247, 248, 449, 448, 649, 650, 851, 850
82, 248, 249, 450, 449, 650, 651, 852, 851
83, 249, 250, 451, 450, 651, 652, 853, 852
84, 250, 251, 452, 451, 652, 653, 854, 853
85, 251, 252, 453, 452, 653, 654, 855, 854
86, 252, 253, 454, 453, 654, 655, 856, 855
87, 253, 254, 455, 454, 655, 656, 857, 856
88, 254, 255, 456, 455, 656, 657, 858, 857
89, 255, 256, 457, 456, 657, 658, 859, 858
90, 256, 257, 458, 457, 658, 659, 860, 859
91, 257, 258, 459, 458, 659, 660, 861, 860
92, 258, 259, 460, 459, 660, 661, 862, 861
93, 259, 260, 461, 460, 661, 662, 863, 862
94, 260, 261, 462, 461, 662, 663, 864, 863
95, 261, 262, 463, 462, 663, 664, 865, 864
96, 262, 263, 464, 463, 664, 665, 866, 865
97, 263, 264, 465, 464, 665, 666, 867, 866
98, 264, 265, 466, 465, 666, 667, 868, 867
99, 265, 266, 467, 466, 667, 668, 869, 868
100, 266, 267, 468, 467, 668, 669, 870, 869
101, 267, 268, 469, 468, 669, 670, 871, 870
102, 268, 269, 470, 469, 670, 671, 872, 871
103, 269, 270, 471, 470, 671, 672, 873, 872
104, 270, 271, 472, 471, 672, 673, 874, 873
105, 271, 272, 473, 472, 673, 674, 875, 874
106, 272, 273, 474, 473, 674, 675, 876, 875
107, 273, 274, 475, 474, 675, 676, 877, 876
108, 274, 275, 476, 475, 676, 677, 878, 877
109, 275, 276, 477, 476, 677, 678, 879, 878
110, 276, 277, 478, 477, 678, 679, 880, 879
111, 277, 278, 479, 478, 679, 680, 881, 880
112, 278, 279, 480, 479, 680, 681, 882, 881
113, 279, 280, 481, 480, 681, 682, 883, 882
114, 280, 281, 482, 481, 682, 683, 884, 883
115, 281, 282, 483, 482, 683, 684, 885, 884
116, 282, 283, 484, 483, 684, 685, 886, 885
117, 283, 284, 485, 484, 685, 686, 887, 886
118, 284, 285, 486, 485, 686, 687, 888, 887
119, 285, 286, 487, 486, 687, 688, 889, 888
120, 286, 287, 488, 487, 688, 689, 890, 889
121, 287, 288, 489, 488, 689, 690, 891, 890
122, 288, 289, 490, 489, 690, 691, 892, 891
123, 289, 290, 491, 490, 691, 692, 893, 892
124, 290, 291, 492, 491, 692, 693, 894, 893
125, 291, 292, 493, 492, 693, 694, 895, 894
126, 292, 293, 494, 493, 694, 695, 896, 895
127, 293, 294, 495, 494, 695, 696, 897, 896
128, 294, 295, 496, 495, 696, 697, 898, 897
129, 295, 296, 497, 496, 697, 698, 899, 898
130, 296, 297, 498, 497, 698, 699, 900, 899
131, 297, 298, 499, 498, 699, 700, 901, 900
132, 298, 299, 500, 499, 700, 701, 902, 901
133, 299, 300, 501, 500, 701, 702, 903, 902
134, 300, 301, 502, 501, 702, 703, 904, 903
135, 301, 302, 503, 502, 703, 704, 905, 904
136, 302, 303, 504, 503, 704, 705, 906, 905
137, 303, 304, 505, 504, 705, 706, 907, 906
138, 304, 305, 506, 505, 706, 707, 908, 907
139, 305, 306, 507, 506, 707, 708, 909, 908
140, 306, 307, 508, 507, 708, 709, 910, 909
141, 307, 308, 509, 508, 709, 710, 911, 910
142, 308, 309, 510, 509, 710, 711, 912, 911
143, 309, 310, 511, 510, 711, 712, 913, 912
144, 310, 311, 512, 511, 712, 713, 914, 913
145, 311, 312, 513, 512, 713, 714, 915, 914
146, 312, 313, 514, 513, 714, 715, 916, 915
147, 313, 314, 515, 514, 715, 716, 917, 916
148, 314, 315, 516, 515, 716, 717, 918, 917
149, 315, 316, 517, 516, 717, 718, 919, 918
150, 316, 317, 518, 517, 718, 719, 920, 919
151, 317, 318, 519, 518, 719, 720, 921, 920
152, 318, 319, 520, 519, 720, 721, 922, 921
153, 319, 320, 521, 520, 721, 722, 923, 922
154, 320, 321, 522, 521, 722, 723, 924, 923
155, 321, 322, 523, 522, 723, 724, 925, 924
156, 322, 323, 524, 523, 724, 725, 926, 925
157, 323, 324, 525, 524, 725, 726, 927, 926
158, 324, 325, 526, 525, 726, 727, 928, 927
159, 325, 326, 527, 526, 727, 728, 929, 928
160, 326, 327, 528, 527, 728, 729, 930, 929
161, 327, 328, 529, 528, 729, 730, 931, 930
162, 328, 329, 530, 529, 730, 731, 932, 931
163, 329, 330, 531, 530, 731, 732, 933, 932
164, 330, 331, 532, 531, 732, 733, 934, 933
165, 331, 332, 533, 532, 733, 734, 935, 934
166, 332, 333, 534, 533, 734, 735, 936, 935
167, 333, 334, 535, 534, 735, 736, 937, 936
168, 334, 335, 536, 535, 736, 737, 938, 937
169, 335, 336, 537, 536, 737, 738, 939, 938
170, 336, 337, 538, 537, 738, 739, 940, 939
171, 337, 338, 539, 538, 739, 740, 941, 940
172, 338, 339, 540, 539, 740, 741, 942, 941
173, 339, 340, 541, 540, 741, 742, 943, 942
174, 340, 341, 542, 541, 742, 743, 944, 943
175, 341, 342, 543, 542, 743, 744, 945, 944
176, 342, 343, 544, 543, 744, 745, 946, 945
177, 343, 344, 545, 544, 745, 746, 947, 946
178, 344, 345, 546, 545, 746, 747, 948, 947
179, 345, 346, 547, 546, 747, 748, 949, 948
180, 346, 347, 548, 547, 748, 749, 950, 949
181, 347, 348, 549, 548, 749, 750, 951, 950
182, 348, 349, 550, 549, 750, 751, 952, 951
183, 349, 350, 551, 550, 751, 752, 953, 952
184, 350, 351, 552, 551, 752, 753, 954, 953
185, 351, 352, 553, 552, 753, 754, 955, 954
186, 352, 353, 554, 553, 754, 755, 956, 955
187, 353, 354, 555, 554, 755, 756, 957, 956
188, 354, 355, 556, 555, 756, 757, 958, 957
189, 355, 356, 557, 556, 757, 758, 959, 958
190, 356, 357, 558, 557, 758, 759, 960, 959
191, 357, 358, 559, 558, 759, 760, 961, 960
192, 358, 359, 560, 559, 760, 761, 962, 961
193, 359, 360, 561, 560, 761, 762, 963, 962
194, 360, 361, 562, 561, 762, 763, 964, 963
195, 361, 362, 563, 562, 763, 764, 965, 964
196, 362, 363, 564, 563, 764, 765, 966, 965
197, 363, 364, 565, 564, 765, 766, 967, 966
198, 364, 365, 566, 565, 766, 767, 968, 967
199, 365, 366, 567, 566, 767, 768, 969, 968
200, 366, 367, 568, 567, 768, 769, 970, 969
201, 367, 368, 569, 568, 769, 770, 971, 970
202, 368, 369, 570, 569, 770, 771, 972, 971
203, 369, 370, 571, 570, 771, 772, 973, 972
204, 370, 371, 572, 571, 772, 773, 974, 973
205, 371, 372, 573, 572, 773, 774, 975, 974
206, 372, 373, 574, 573, 774, 775, 976, 975
207, 373, 374, 575, 574, 775, 776, 977, 976
208, 374, 375, 576, 575, 776, 777, 978, 977
209, 375, 376, 577, 576, 777, 778, 979, 978
210, 376, 377, 578, 577, 778, 779, 980, 979
211, 377, 378, 579, 578, 779, 780, 981, 980
212, 378, 379, 580, 579, 780, 781, 982, 981
213, 379, 380, 581, 580, 781, 782, 983, 982
214, 380, 381, 582, 581, 782, 783, 984, 983
215, 381, 382, 583, 582, 783, 784, 985, 984
216, 382, 383, 584, 583, 784, 785, 986, 985
217, 383, 384, 585, 584, 785, 786, 987, 986
218, 384, 385, 586, 585, 786, 787, 988, 987
219, 385, 386, 587, 586, 787, 788, 989, 988
220, 386, 387, 588, 587, 788, 789, 990, 989
221, 387, 388, 589, 588, 789, 790, 991, 990
222, 388, 389, 590, 589, 790, 791, 992, 991
223, 389, 390, 591, 590, 791, 792, 993, 992
224, 390, 391, 592, 591, 792, 793, 994, 993
225, 391, 392, 593, 592, 793, 794, 995, 994
226, 392, 393, 594, 593, 794, 795, 996, 995
227, 393, 394, 595, 594, 795, 796, 997, 996
228, 394, 395, 596, 595, 796, 797, 998, 997
229, 395, 396, 597, 596, 797, 798, 999, 998
230, 396, 397, 598, 597, 798, 799, 1000, 999
231, 397, 398, 599, 598, 799, 800, 1001, 1000
232, 398, 399, 600, 599, 800, 801, 1002, 1001
233, 399, 400, 601, 600, 801, 802, 1003, 1002
234, 400, 401, 602, 601, 802, 803, 1004, 1003
235, 401, 402, 603, 602, 803, 804, 1005, 1004
236, 402, 403, 604, 603, 804, 805, 1006, 1005
237, 403, 404, 605, 604, 805, 806, 1007, 1006
238, 404, 405, 606, 605, 806, 807, 1008, 1007
239, 405, 406, 607, 606, 807, 808, 1009, 1008
240, 406, 407, 608, 607, 808, 809, 1010, 1009
241, 407, 408, 609, 608, 809, 810, 1011, 1010
242, 408, 409, 610, 609, 810, 811, 1012, 1011
243, 409, 410, 611, 610, 811, 812, 1013, 1012
244, 410, 411, 612, 611, 812, 813, 1014, 1013
245, 411, 412, 613, 612, 813, 814, 1015, 1014
246, 412, 413, 614, 613, 814, 815, 1016, 1015
247, 413, 414, 615, 614, 815, 816, 1017, 1016
248, 414, 415, 616, 615, 816, 817, 1018, 1017
249, 415, 416, 617, 616, 817, 818, 1019, 1018
250, 416, 417, 618, 617, 818, 819, 1020, 1019
251, 417, 418, 619, 618, 819, 820, 1021, 1020
252, 418, 419, 620, 619, 820, 821, 1022, 1021
253, 419, 420, 621, 620, 821, 822, 1023, 1022
254, 420, 421, 622, 621, 822, 823, 1024, 1023
255, 421, 422, 623, 622, 823, 824, 1025, 1024
256, 422, 423, 624, 623, 824, 825, 1026, 1025
257, 423, 424, 625, 624, 825, 826, 1027, 1026
258, 424, 425, 626, 625, 826, 827, 1028, 1027
259, 425, 426, 627, 626, 827, 828, 1029, 1028
260, 426, 427, 628, 627, 828, 829, 1030, 1029
261, 427, 428, 629, 628, 829, 830, 1031, 1030
262, 428, 429, 630, 629, 830, 831, 1032, 1031
263, 429, 430, 631, 630, 831, 832, 1033, 1032
264, 430, 431, 632, 631, 832, 833, 1034, 1033
265, 431, 432, 633, 632, 833, 834, 1035, 1034
266, 432, 433, 634, 633, 834, 835, 1036, 1035
267, 433, 434, 635, 634, 835, 836, 1037, 1036
268, 434, 435, 636, 635, 836, 837, 1038, 1037
269, 435, 436, 637, 636, 837, 838, 1039, 1038
270, 436, 437, 638, 637, 838, 839, 1040, 1039
271, 437, 438, 639, 638, 839, 840, 1041, 1040
272, 438, 439, 640, 639, 840, 841, 1042, 1041
273, 439, 440, 641, 640, 841, 842, 1043, 1042
274, 440, 441, 642, 641, 842, 843, 1044, 1043
275, 441, 442, 643, 642, 843, 844, 1045, 1044
276, 442, 443, 644, 643, 844, 845, 1046, 1045
277, 443, 444, 645, 644, 845, 846, 1047, 1046
278, 444, 445, 646, 645, 846, 847, 1048, 1047
279, 445, 446, 647, 646, 847, 848, 1049, 1048
280, 446, 447, 648, 647, 848, 849, 1050, 1049
*NSET, NSET=CLAMP
1, 2, 3, 4, 5, 6, 36, 37, 38, 39, 40, 41
42, 43, 44, 45, 46, 47, 77, 78, 79, 80, 81, 82
83, 84, 85, 86, 87, 88, 118, 119, 120, 121, 122, 123
124, 125, 126, 127, 128, 129, 159, 160, 161, 162, 163, 164
165, 166, 167, 168, 169, 170, 200, 201, 202, 203, 204, 205
206, 207, 208, 209, 210, 211, 241, 242, 243, 244, 245, 246
*NSET, NSET=SUPA
167, 208
*NSET, NSET=SUPB
203, 244
*NSET, NSET=NTOP
165, 166, 167, 168, 169, 170, 171, 172, 173, 174, 175, 176
177, 178, 179, 180, 181, 182, 183, 184, 185, 186, 187, 188
189, 190, 191, 192, 193, 194, 195, 196, 197, 198, 199, 200
201, 202, 203, 204, 205, 206, 207, 208, 209, 210, 211, 212
213, 214, 215, 216, 217, 218, 219, 220, 221, 222, 223, 224
225, 226, 227, 228, 229, 230, 231, 232, 233, 234, 235, 236
237, 238, 239, 240, 241, 242, 243, 244, 245, 246
*ELSET, ELSET=ETOPL
41, 42, 43, 44, 45, 46, 47, 48, 49, 50, 51, 52
53, 54, 55, 56, 57, 58, 59, 60, 61, 62, 63, 64
65, 66, 67, 68, 69, 70, 71, 72, 73, 74, 75, 76
77, 78, 79, 80
*SURFACE, NAME=SSLAVE, TYPE=ELEMENT
ETOPL, S2
*SURFACE, NAME=SMASTER, TYPE=ELEMENT
81, S1
82, S1
83, S1
84, S1
85, S1
86, S1
87, S1
88, S1
89, S1
90, S1
91, S1
92, S1
93, S1
94, S1
95, S1
96, S1
97, S1
98, S1
99, S1
100, S1
101, S1
102, S1
103, S1
104, S1
105, S1
106, S1
107, S1
108, S1
109, S1
110, S1
111, S1
112, S1
113, S1
114, S1
115, S1
116, S1
117, S1
118, S1
119, S1
120, S1
121, S1
122, S1
123, S1
124, S1
125, S1
126, S1
127, S1
128, S1
129, S1
130, S1
131, S1
132, S1
133, S1
134, S1
135, S1
136, S1
137, S1
138, S1
139, S1
140, S1
141, S1
142, S1
143, S1
144, S1
145, S1
146, S1
147, S1
148, S1
149, S1
150, S1
151, S1
152, S1
153, S1
154, S1
155, S1
156, S1
157, S1
158, S1
159, S1
160, S1
161, S1
162, S1
163, S1
164, S1
165, S1
166, S1
167, S1
168, S1
169, S1
170, S1
171, S1
172, S1
173, S1
174, S1
175, S1
176, S1
177, S1
178, S1
179, S1
180, S1
181, S1
182, S1
183, S1
184, S1
185, S1
186, S1
187, S1
188, S1
189, S1
190, S1
191, S1
192, S1
193, S1
194, S1
195, S1
196, S1
197, S1
198, S1
199, S1
200, S1
201, S1
202, S1
203, S1
204, S1
205, S1
206, S1
207, S1
208, S1
209, S1
210, S1
211, S1
212, S1
213, S1
214, S1
215, S1
216, S1
217, S1
218, S1
219, S1
220, S1
221, S1
222, S1
223, S1
224, S1
225, S1
226, S1
227, S1
228, S1
229, S1
230, S1
231, S1
232, S1
233, S1
234, S1
235, S1
236, S1
237, S1
238, S1
239, S1
240, S1
241, S1
242, S1
243, S1
244, S1
245, S1
246, S1
247, S1
248, S1
249, S1
250, S1
251, S1
252, S1
253, S1
254, S1
255, S1
256, S1
257, S1
258, S1
259, S1
260, S1
261, S1
262, S1
263, S1
264, S1
265, S1
266, S1
267, S1
268, S1
269, S1
270, S1
271, S1
272, S1
273, S1
274, S1
275, S1
276, S1
277, S1
278, S1
279, S1
280, S1
*MATERIAL, NAME=AL
*ELASTIC
70000, 0.33
*PLASTIC
100, 0
102.005739, 0.001
103.986239, 0.002
105.94186, 0.003
107.872956, 0.004
109.779878, 0.005
111.662972, 0.006
113.522577, 0.007
115.359028, 0.008
117.172657, 0.009
118.963788, 0.01
120.732743, 0.011
122.479839, 0.012
124.205387, 0.013
125.909695, 0.014
127.593067, 0.015
129.255801, 0.016
130.898192, 0.017
132.52053, 0.018
134.123101, 0.019
135.706188, 0.02
137.270069, 0.021
138.815018, 0.022
140.341305, 0.023
141.849196, 0.024
143.338954, 0.025
144.810839, 0.026
146.265105, 0.027
147.702003, 0.028
149.121781, 0.029
150.524685, 0.03
151.910955, 0.031
153.280827, 0.032
154.634537, 0.033
155.972315, 0.034
157.294389, 0.035
158.600982, 0.036
159.892316, 0.037
161.168608, 0.038
162.430073, 0.039
163.676923, 0.04
164.909367, 0.041
166.127609, 0.042
167.331854, 0.043
168.5223, 0.044
169.699144, 0.045
170.862581, 0.046
172.012803, 0.047
173.149997, 0.048
174.27435, 0.049
175.386045, 0.05
176.485262, 0.051
177.57218, 0.052
178.646975, 0.053
179.70982, 0.054
180.760884, 0.055
181.800336, 0.056
182.828343, 0.057
183.845067, 0.058
184.850669, 0.059
185.845308, 0.06
186.829141, 0.061
187.802322, 0.062
188.765003, 0.063
189.717334, 0.064
190.659462, 0.065
191.591533, 0.066
192.513692, 0.067
193.426078, 0.068
194.328833, 0.069
195.222092, 0.07
196.105993, 0.071
196.980668, 0.072
197.846249, 0.073
198.702866, 0.074
199.550646, 0.075
200.389717, 0.076
201.220202, 0.077
202.042224, 0.078
202.855904, 0.079
203.661361, 0.08
204.458711, 0.081
205.248072, 0.082
206.029556, 0.083
206.803277, 0.084
207.569345, 0.085
208.32787, 0.086
209.078958, 0.087
209.822717, 0.088
210.559251, 0.089
211.288663, 0.09
212.011054, 0.091
212.726526, 0.092
213.435176, 0.093
214.137102, 0.094
214.8324, 0.095
215.521165, 0.096
216.20349, 0.097
216.879466, 0.098
217.549185, 0.099
218.212736, 0.1
218.870207, 0.101
219.521684, 0.102
220.167254, 0.103
220.807, 0.104
221.441005, 0.105
222.069352, 0.106
222.692122, 0.107
223.309393, 0.108
223.921245, 0.109
224.527755, 0.11
225.128999, 0.111
225.725052, 0.112
226.315989, 0.113
226.901882, 0.114
227.482803, 0.115
228.058823, 0.116
228.630013, 0.117
229.196441, 0.118
229.758176, 0.119
230.315283, 0.12
230.86783, 0.121
231.415882, 0.122
231.959501, 0.123
232.498753, 0.124
233.033699, 0.125
233.5644, 0.126
234.090918, 0.127
234.613311, 0.128
235.13164, 0.129
235.645961, 0.13
236.156332, 0.131
236.66281, 0.132
237.16545, 0.133
237.664306, 0.134
238.159434, 0.135
238.650885, 0.136
239.138713, 0.137
239.622969, 0.138
240.103704, 0.139
240.580969, 0.14
241.054813, 0.141
241.525284, 0.142
241.992432, 0.143
242.456303, 0.144
242.916944, 0.145
243.374402, 0.146
243.828721, 0.147
244.279947, 0.148
244.728123, 0.149
245.173294, 0.15
245.615502, 0.151
246.054789, 0.152
246.491198, 0.153
246.924768, 0.154
247.355542, 0.155
247.783558, 0.156
248.208856, 0.157
248.631475, 0.158
249.051453, 0.159
249.468828, 0.16
249.883636, 0.161
250.295915, 0.162
250.705701, 0.163
251.113029, 0.164
251.517935, 0.165
251.920452, 0.166
252.320616, 0.167
252.718459, 0.168
253.114014, 0.169
253.507316, 0.17
253.898394, 0.171
254.287282, 0.172
254.674011, 0.173
255.058611, 0.174
255.441112, 0.175
255.821546, 0.176
256.19994, 0.177
256.576325, 0.178
256.95073, 0.179
257.323181, 0.18
257.693707, 0.181
258.062337, 0.182
258.429096, 0.183
258.794011, 0.184
259.157109, 0.185
259.518416, 0.186
259.877957, 0.187
260.235758, 0.188
260.591843, 0.189
260.946237, 0.19
261.298963, 0.191
261.650047, 0.192
261.999511, 0.193
262.347378, 0.194
262.693671, 0.195
263.038413, 0.196
263.381625, 0.197
263.72333, 0.198
264.063549, 0.199
264.402304, 0.2
264.739614, 0.201
265.075502, 0.202
265.409986, 0.203
265.743088, 0.204
266.074827, 0.205
266.405222, 0.206
266.734292, 0.207
267.062057, 0.208
267.388535, 0.209
267.713744, 0.21
268.037703, 0.211
268.36043, 0.212
268.681941, 0.213
269.002255, 0.214
269.321388, 0.215
269.639358, 0.216
269.95618, 0.217
270.271872, 0.218
270.586449, 0.219
270.899927, 0.22
271.212323, 0.221
271.523651, 0.222
271.833926, 0.223
272.143164, 0.224
272.45138, 0.225
272.758588, 0.226
273.064803, 0.227
273.370038, 0.228
273.674308, 0.229
273.977626, 0.23
274.280007, 0.231
274.581462, 0.232
274.882007, 0.233
275.181653, 0.234
275.480414, 0.235
275.778301, 0.236
276.075328, 0.237
276.371508, 0.238
276.666851, 0.239
276.961369, 0.24
277.255076, 0.241
277.547982, 0.242
277.840098, 0.243
278.131437, 0.244
278.422008, 0.245
278.711824, 0.246
279.000894, 0.247
279.28923, 0.248
279.576841, 0.249
279.863739, 0.25
280.149933, 0.251
280.435434, 0.252
280.720251, 0.253
281.004395, 0.254
281.287874, 0.255
281.570698, 0.256
281.852877, 0.257
282.13442, 0.258
282.415335, 0.259
282.695633, 0.26
282.975321, 0.261
283.254408, 0.262
283.532904, 0.263
283.810815, 0.264
284.088152, 0.265
284.364921, 0.266
284.641132, 0.267
284.916791, 0.268
285.191907, 0.269
285.466488, 0.27
285.740541, 0.271
286.014074, 0.272
286.287094, 0.273
286.559609, 0.274
286.831626, 0.275
287.103151, 0.276
287.374192, 0.277
287.644756, 0.278
287.91485, 0.279
288.18448, 0.28
288.453653, 0.281
288.722375, 0.282
288.990653, 0.283
289.258493, 0.284
289.525902, 0.285
289.792886, 0.286
290.05945, 0.287
290.325601, 0.288
290.591345, 0.289
290.856687, 0.29
291.121633, 0.291
291.386189, 0.292
291.65036, 0.293
291.914152, 0.294
292.17757, 0.295
292.44062, 0.296
292.703307, 0.297
292.965636, 0.298
293.227612, 0.299
293.48924, 0.3
296.087451, 0.31
298.655918, 0.32
301.198624, 0.33
303.71902, 0.34
306.220093, 0.35
308.70443, 0.36
311.174273, 0.37
313.631564, 0.38
316.077982, 0.39
318.514984, 0.4
320.943831, 0.41
323.365615, 0.42
325.781282, 0.43
328.191651, 0.44
330.597432, 0.45
332.999239, 0.46
335.397604, 0.47
337.792988, 0.48
340.18579, 0.49
342.576356, 0.5
344.964986, 0.51
347.351939, 0.52
349.737439, 0.53
352.121681, 0.54
354.504834, 0.55
356.887043, 0.56
359.268435, 0.57
361.649118, 0.58
364.029189, 0.59
366.408729, 0.6
368.787809, 0.61
371.166491, 0.62
373.544827, 0.63
375.922866, 0.64
378.300645, 0.65
380.6782, 0.66
383.055561, 0.67
385.432754, 0.68
387.809802, 0.69
390.186723, 0.7
392.563536, 0.71
394.940253, 0.72
397.316889, 0.73
399.693454, 0.74
402.069957, 0.75
404.446407, 0.76
406.822811, 0.77
409.199176, 0.78
411.575505, 0.79
413.951805, 0.8
416.328079, 0.81
418.70433, 0.82
421.080562, 0.83
423.456777, 0.84
425.832977, 0.85
428.209165, 0.86
430.585342, 0.87
432.961509, 0.88
435.337668, 0.89
437.71382, 0.9
440.089966, 0.91
442.466107, 0.92
444.842243, 0.93
447.218375, 0.94
449.594503, 0.95
451.970629, 0.96
454.346751, 0.97
456.722872, 0.98
459.098991, 0.99
461.475108, 1
463.851223, 1.01
466.227337, 1.02
468.603451, 1.03
470.979563, 1.04
473.355674, 1.05
475.731785, 1.06
478.107895, 1.07
480.484004, 1.08
482.860113, 1.09
485.236222, 1.1
487.61233, 1.11
489.988438, 1.12
492.364546, 1.13
494.740654, 1.14
497.116761, 1.15
499.492868, 1.16
501.868975, 1.17
504.245082, 1.18
506.621189, 1.19
508.997295, 1.2
511.373402, 1.21
513.749508, 1.22
516.125615, 1.23
518.501721, 1.24
520.877828, 1.25
523.253934, 1.26
525.63004, 1.27
528.006146, 1.28
530.382253, 1.29
532.758359, 1.3
535.134465, 1.31
537.510571, 1.32
539.886677, 1.33
542.262783, 1.34
544.63889, 1.35
547.014996, 1.36
549.391102, 1.37
551.767208, 1.38
554.143314, 1.39
556.51942, 1.4
558.895526, 1.41
561.271632, 1.42
563.647738, 1.43
566.023844, 1.44
568.399951, 1.45
570.776057, 1.46
573.152163, 1.47
575.528269, 1.48
577.904375, 1.49
580.280481, 1.5
582.656587, 1.51
585.032693, 1.52
587.408799, 1.53
589.784905, 1.54
592.161011, 1.55
594.537117, 1.56
596.913223, 1.57
599.289329, 1.58
601.665435, 1.59
604.041541, 1.6
606.417647, 1.61
608.793754, 1.62
611.16986, 1.63
613.545966, 1.64
615.922072, 1.65
618.298178, 1.66
620.674284, 1.67
623.05039, 1.68
625.426496, 1.69
627.802602, 1.7
630.178708, 1.71
632.554814, 1.72
634.93092, 1.73
637.307026, 1.74
639.683132, 1.75
642.059238, 1.76
644.435344, 1.77
646.81145, 1.78
649.187556, 1.79
651.563662, 1.8
653.939769, 1.81
656.315875, 1.82
658.691981, 1.83
661.068087, 1.84
663.444193, 1.85
665.820299, 1.86
668.196405, 1.87
670.572511, 1.88
672.948617, 1.89
675.324723, 1.9
677.700829, 1.91
680.076935, 1.92
682.453041, 1.93
684.829147, 1.94
687.205253, 1.95
689.581359, 1.96
691.957465, 1.97
694.333571, 1.98
696.709677, 1.99
699.085784, 2
701.46189, 2.01
703.837996, 2.02
706.214102, 2.03
708.590208, 2.04
710.966314, 2.05
713.34242, 2.06
715.718526, 2.07
718.094632, 2.08
720.470738, 2.09
722.846844, 2.1
725.22295, 2.11
727.599056, 2.12
729.975162, 2.13
732.351268, 2.14
734.727374, 2.15
737.10348, 2.16
739.479586, 2.17
741.855693, 2.18
744.231799, 2.19
746.607905, 2.2
748.984011, 2.21
751.360117, 2.22
753.736223, 2.23
756.112329, 2.24
758.488435, 2.25
760.864541, 2.26
763.240647, 2.27
765.616753, 2.28
767.992859, 2.29
770.368965, 2.3
772.745071, 2.31
775.121177, 2.32
777.497283, 2.33
779.873389, 2.34
782.249495, 2.35
784.625601, 2.36
787.001708, 2.37
789.377814, 2.38
791.75392, 2.39
794.130026, 2.4
796.506132, 2.41
798.882238, 2.42
801.258344, 2.43
803.63445, 2.44
806.010556, 2.45
808.386662, 2.46
810.762768, 2.47
813.138874, 2.48
815.51498, 2.49
817.891086, 2.5
820.267192, 2.51
822.643298, 2.52
825.019404, 2.53
827.39551, 2.54
829.771616, 2.55
832.147723, 2.56
834.523829, 2.57
836.899935, 2.58
839.276041, 2.59
841.652147, 2.6
844.028253, 2.61
846.404359, 2.62
848.780465, 2.63
851.156571, 2.64
853.532677, 2.65
855.908783, 2.66
858.284889, 2.67
860.660995, 2.68
863.037101, 2.69
865.413207, 2.7
867.789313, 2.71
870.165419, 2.72
872.541525, 2.73
874.917631, 2.74
877.293738, 2.75
879.669844, 2.76
882.04595, 2.77
884.422056, 2.78
886.798162, 2.79
889.174268, 2.8
891.550374, 2.81
893.92648, 2.82
896.302586, 2.83
898.678692, 2.84
901.054798, 2.85
903.430904, 2.86
905.80701, 2.87
908.183116, 2.88
910.559222, 2.89
912.935328, 2.9
915.311434, 2.91
917.68754, 2.92
920.063646, 2.93
922.439753, 2.94
924.815859, 2.95
927.191965, 2.96
929.568071, 2.97
931.944177, 2.98
934.320283, 2.99
936.696389, 3

*MATERIAL, NAME=STEEL
*ELASTIC
210000., 0.3
*SOLID SECTION, ELSET=SHEET, MATERIAL=AL
*SOLID SECTION, ELSET=TOOL, MATERIAL=STEEL
*SURFACE INTERACTION, NAME=SI
*SURFACE BEHAVIOR, PRESSURE-OVERCLOSURE=LINEAR
700000, 0.01
*FRICTION
0.1, 700000
*CONTACT PAIR, INTERACTION=SI, TYPE=NODE TO SURFACE
SSLAVE, SMASTER
*STEP, NLGEOM, INC=100000
*STATIC
0.025, 1.0, 2.5e-06, 0.025
*BOUNDARY
NSHEET, 2, 2, 0.0
*BOUNDARY
CLAMP, 1, 1, 0.0
CLAMP, 3, 3, 0.0
*BOUNDARY
PUNCH, 1, 1, 0
PUNCH, 2, 2, 0
PUNCH, 3, 3, -4
*NODE PRINT, NSET=PUNCH, TOTALS=ONLY
RF
*NODE PRINT, NSET=NTOP
U
*EL PRINT, ELSET=SHEET
PEEQ
*END STEP
*STEP, NLGEOM, INC=100000
*STATIC
0.05, 1.0, 1e-7, 0.05
*MODEL CHANGE, TYPE=CONTACT PAIR, REMOVE
SSLAVE, SMASTER
*BOUNDARY
NSHEET, 2, 2, 0.0
*BOUNDARY
CLAMP, 1, 1, 0.0
CLAMP, 3, 3, 0.0
*BOUNDARY
PUNCH, 1, 1, 0
PUNCH, 2, 2, 0
PUNCH, 3, 3, -4
*NODE PRINT, NSET=PUNCH, TOTALS=ONLY
RF
*NODE PRINT, NSET=NTOP
U
*EL PRINT, ELSET=SHEET
PEEQ
*END STEP
*STEP, NLGEOM, INC=100000
*STATIC
0.05, 1.0, 1e-6, 0.05
*BOUNDARY, OP=NEW
NSHEET, 2, 2, 0.0
PUNCH, 1, 1, 0
PUNCH, 2, 2, 0
PUNCH, 3, 3, -4
SUPA, 1, 1, 0.0
SUPA, 3, 3, 0.0
SUPB, 3, 3, 0.0
*NODE PRINT, NSET=PUNCH, TOTALS=ONLY
RF
*NODE PRINT, NSET=NTOP
U
*EL PRINT, ELSET=SHEET
PEEQ
*END STEP
