*HEADING
punch cross-check
*NODE, NSET=NSHEET
1, -20, 0, -1
2, -18, 0, -1
3, -16, 0, -1
4, -14, 0, -1
5, -12, 0, -1
6, -10, 0, -1
7, -8, 0, -1
8, -6, 0, -1
9, -4, 0, -1
10, -2, 0, -1
11, 0, 0, -1
12, 2, 0, -1
13, 4, 0, -1
14, 6, 0, -1
15, 8, 0, -1
16, 10, 0, -1
17, 12, 0, -1
18, 14, 0, -1
19, 16, 0, -1
20, 18, 0, -1
21, 20, 0, -1
22, -20, 2, -1
23, -18, 2, -1
24, -16, 2, -1
25, -14, 2, -1
26, -12, 2, -1
27, -10, 2, -1
28, -8, 2, -1
29, -6, 2, -1
30, -4, 2, -1
31, -2, 2, -1
32, 0, 2, -1
33, 2, 2, -1
34, 4, 2, -1
35, 6, 2, -1
36, 8, 2, -1
37, 10, 2, -1
38, 12, 2, -1
39, 14, 2, -1
40, 16, 2, -1
41, 18, 2, -1
42, 20, 2, -1
43, -20, 0, -0.5
44, -18, 0, -0.5
45, -16, 0, -0.5
46, -14, 0, -0.5
47, -12, 0, -0.5
48, -10, 0, -0.5
49, -8, 0, -0.5
50, -6, 0, -0.5
51, -4, 0, -0.5
52, -2, 0, -0.5
53, 0, 0, -0.5
54, 2, 0, -0.5
55, 4, 0, -0.5
56, 6, 0, -0.5
57, 8, 0, -0.5
58, 10, 0, -0.5
59, 12, 0, -0.5
60, 14, 0, -0.5
61, 16, 0, -0.5
62, 18, 0, -0.5
63, 20, 0, -0.5
64, -20, 2, -0.5
65, -18, 2, -0.5
66, -16, 2, -0.5
67, -14, 2, -0.5
68, -12, 2, -0.5
69, -10, 2, -0.5
70, -8, 2, -0.5
71, -6, 2, -0.5
72, -4, 2, -0.5
73, -2, 2, -0.5
74, 0, 2, -0.5
75, 2, 2, -0.5
76, 4, 2, -0.5
77, 6, 2, -0.5
78, 8, 2, -0.5
79, 10, 2, -0.5
80, 12, 2, -0.5
81, 14, 2, -0.5
82, 16, 2, -0.5
83, 18, 2, -0.5
84, 20, 2, -0.5
85, -20, 0, 0
86, -18, 0, 0
87, -16, 0, 0
88, -14, 0, 0
89, -12, 0, 0
90, -10, 0, 0
91, -8, 0, 0
92, -6, 0, 0
93, -4, 0, 0
94, -2, 0, 0
95, 0, 0, 0
96, 2, 0, 0
97, 4, 0, 0
98, 6, 0, 0
99, 8, 0, 0
100, 10, 0, 0
101, 12, 0, 0
102, 14, 0, 0
103, 16, 0, 0
104, 18, 0, 0
105, 20, 0, 0
106, -20, 2, 0
107, -18, 2, 0
108, -16, 2, 0
109, -14, 2, 0
110, -12, 2, 0
111, -10, 2, 0
112, -8, 2, 0
113, -6, 2, 0
114, -4, 2, 0
115, -2, 2, 0
116, 0, 2, 0
117, 2, 2, 0
118, 4, 2, 0
119, 6, 2, 0
120, 8, 2, 0
121, 10, 2, 0
122, 12, 2, 0
123, 14, 2, 0
124, 16, 2, 0
125, 18, 2, 0
126, 20, 2, 0
*NODE, NSET=PUNCH
127, -3.93923101205, -1, 4.69459271067
128, -3.95075336238, -1, 4.62573786016
129, -3.96107227497, -1, 4.55669240384
130, -3.97018460657, -1, 4.48747737362
131, -3.97808758147, -1, 4.41811385307
132, -3.98477879237, -1, 4.34862297099
133, -3.99025620104, -1, 4.27902589498
134, -3.99451813902, -1, 4.20934382497
135, -3.99756330808, -1, 4.13959798681
136, -3.99939078063, -1, 4.06980962575
137, -4, -1, 4
138, -3.99939078063, -1, 3.93019037425
139, -3.99756330808, -1, 3.86040201319
140, -3.99451813902, -1, 3.79065617503
141, -3.99025620104, -1, 3.72097410502
142, -3.98477879237, -1, 3.65137702901
143, -3.97808758147, -1, 3.58188614693
144, -3.97018460657, -1, 3.51252262638
145, -3.96107227497, -1, 3.44330759616
146, -3.95075336238, -1, 3.37426213984
147, -3.93923101205, -1, 3.30540728933
148, -3.92650873379, -1, 3.23676401849
149, -3.91259040294, -1, 3.16835323673
150, -3.89748025914, -1, 3.10019578262
151, -3.8811829051, -1, 3.0323124176
152, -3.86370330516, -1, 2.96472381959
153, -3.84504678375, -1, 2.89745057673
154, -3.82521902385, -1, 2.83051318111
155, -3.80422606518, -1, 2.7639320225
156, -3.7820743024, -1, 2.69772738217
157, -3.75877048314, -1, 2.6319194267
158, -3.73432170599, -1, 2.56652820182
159, -3.70873541827, -1, 2.50157362634
160, -3.68201941381, -1, 2.43707548604
161, -3.65418183057, -1, 2.3730534277
162, -3.62523114815, -1, 2.30952695304
163, -3.5951761852, -1, 2.24651541284
164, -3.56402609675, -1, 2.18403800104
165, -3.53179037144, -1, 2.12211374886
166, -3.49847882856, -1, 2.06076151901
167, -3.46410161514, -1, 2
168, -3.42866920281, -1, 1.93984770036
169, -3.39219238463, -1, 1.88032294307
170, -3.35468227178, -1, 1.82144385994
171, -3.31615029022, -1, 1.76322838612
172, -3.27660817716, -1, 1.7056942546
173, -3.2360679775, -1, 1.64885899083
174, -3.19454204019, -1, 1.59273990739
175, -3.15204301443, -1, 1.5373540987
176, -3.10858384583, -1, 1.4827184358
177, -3.06417777248, -1, 1.42884956125
178, -3.01883832089, -1, 1.37576388404
179, -2.97257930191, -1, 1.32347757456
180, -2.92541480648, -1, 1.27200655975
181, -2.87735920135, -1, 1.22136651816
182, -2.82842712475, -1, 1.17157287525
183, -2.77863348184, -1, 1.12264079865
184, -2.72799344025, -1, 1.07458519352
185, -2.67652242544, -1, 1.02742069809
186, -2.62423611596, -1, 0.981161679109
187, -2.57115043875, -1, 0.935822227524
188, -2.5172815642, -1, 0.891416154172
189, -2.4626459013, -1, 0.847956985573
190, -2.40726009261, -1, 0.805457959811
191, -2.35114100917, -1, 0.7639320225
192, -2.2943057454, -1, 0.723391822844
193, -2.23677161388, -1, 0.68384970978
194, -2.17855614006, -1, 0.645317728218
195, -2.11967705693, -1, 0.607807615374
196, -2.06015229964, -1, 0.571330797192
197, -2, -1, 0.535898384862
198, -1.93923848099, -1, 0.501521171442
199, -1.87788625114, -1, 0.468209628564
200, -1.81596199896, -1, 0.435973903247
201, -1.75348458716, -1, 0.404823814803
202, -1.69047304696, -1, 0.374768851853
203, -1.6269465723, -1, 0.34581816943
204, -1.56292451396, -1, 0.31798058619
205, -1.49842637366, -1, 0.291264581733
206, -1.43347179818, -1, 0.265678294011
207, -1.3680805733, -1, 0.241229516856
208, -1.30227261783, -1, 0.217925697603
209, -1.2360679775, -1, 0.195773934819
210, -1.16948681889, -1, 0.174780976148
211, -1.10254942327, -1, 0.154953216247
212, -1.03527618041, -1, 0.136296694844
213, -0.967687582399, -1, 0.118817094896
214, -0.899804217375, -1, 0.102519740859
215, -0.831646763271, -1, 0.0874095970648
216, -0.763235981506, -1, 0.0734912662093
217, -0.694592710668, -1, 0.0607689879512
218, -0.625737860161, -1, 0.0492466376194
219, -0.55669240384, -1, 0.0389277250337
220, -0.487477373621, -1, 0.0298153934347
221, -0.418113853071, -1, 0.0219124185269
222, -0.348622970991, -1, 0.015221207633
223, -0.279025894977, -1, 0.0097437989607
224, -0.209343824972, -1, 0.0054818609817
225, -0.13959798681, -1, 0.00243669192362
226, -0.0698096257491, -1, 0.000609219374435
227, 0, -1, 0
228, 0.0698096257491, -1, 0.000609219374435
229, 0.13959798681, -1, 0.00243669192362
230, 0.209343824972, -1, 0.0054818609817
231, 0.279025894977, -1, 0.0097437989607
232, 0.348622970991, -1, 0.015221207633
233, 0.418113853071, -1, 0.0219124185269
234, 0.487477373621, -1, 0.0298153934347
235, 0.55669240384, -1, 0.0389277250337
236, 0.625737860161, -1, 0.0492466376194
237, 0.694592710668, -1, 0.0607689879512
238, 0.763235981506, -1, 0.0734912662093
239, 0.831646763271, -1, 0.0874095970648
240, 0.899804217375, -1, 0.102519740859
241, 0.967687582399, -1, 0.118817094896
242, 1.03527618041, -1, 0.136296694844
243, 1.10254942327, -1, 0.154953216247
244, 1.16948681889, -1, 0.174780976148
245, 1.2360679775, -1, 0.195773934819
246, 1.30227261783, -1, 0.217925697603
247, 1.3680805733, -1, 0.241229516856
248, 1.43347179818, -1, 0.265678294011
249, 1.49842637366, -1, 0.291264581733
250, 1.56292451396, -1, 0.31798058619
251, 1.6269465723, -1, 0.34581816943
252, 1.69047304696, -1, 0.374768851853
253, 1.75348458716, -1, 0.404823814803
254, 1.81596199896, -1, 0.435973903247
255, 1.87788625114, -1, 0.468209628564
256, 1.93923848099, -1, 0.501521171442
257, 2, -1, 0.535898384862
258, 2.06015229964, -1, 0.571330797192
259, 2.11967705693, -1, 0.607807615374
260, 2.17855614006, -1, 0.645317728218
261, 2.23677161388, -1, 0.68384970978
262, 2.2943057454, -1, 0.723391822844
263, 2.35114100917, -1, 0.7639320225
264, 2.40726009261, -1, 0.805457959811
265, 2.4626459013, -1, 0.847956985573
266, 2.5172815642, -1, 0.891416154172
267, 2.57115043875, -1, 0.935822227524
268, 2.62423611596, -1, 0.981161679109
269, 2.67652242544, -1, 1.02742069809
270, 2.72799344025, -1, 1.07458519352
271, 2.77863348184, -1, 1.12264079865
272, 2.82842712475, -1, 1.17157287525
273, 2.87735920135, -1, 1.22136651816
274, 2.92541480648, -1, 1.27200655975
275, 2.97257930191, -1, 1.32347757456
276, 3.01883832089, -1, 1.37576388404
277, 3.06417777248, -1, 1.42884956125
278, 3.10858384583, -1, 1.4827184358
279, 3.15204301443, -1, 1.5373540987
280, 3.19454204019, -1, 1.59273990739
281, 3.2360679775, -1, 1.64885899083
282, 3.27660817716, -1, 1.7056942546
283, 3.31615029022, -1, 1.76322838612
284, 3.35468227178, -1, 1.82144385994
285, 3.39219238463, -1, 1.88032294307
286, 3.42866920281, -1, 1.93984770036
287, 3.46410161514, -1, 2
288, 3.49847882856, -1, 2.06076151901
289, 3.53179037144, -1, 2.12211374886
290, 3.56402609675, -1, 2.18403800104
291, 3.5951761852, -1, 2.24651541284
292, 3.62523114815, -1, 2.30952695304
293, 3.65418183057, -1, 2.3730534277
294, 3.68201941381, -1, 2.43707548604
295, 3.70873541827, -1, 2.50157362634
296, 3.73432170599, -1, 2.56652820182
297, 3.75877048314, -1, 2.6319194267
298, 3.7820743024, -1, 2.69772738217
299, 3.80422606518, -1, 2.7639320225
300, 3.82521902385, -1, 2.83051318111
301, 3.84504678375, -1, 2.89745057673
302, 3.86370330516, -1, 2.96472381959
303, 3.8811829051, -1, 3.0323124176
304, 3.89748025914, -1, 3.10019578262
305, 3.91259040294, -1, 3.16835323673
306, 3.92650873379, -1, 3.23676401849
307, 3.93923101205, -1, 3.30540728933
308, 3.95075336238, -1, 3.37426213984
309, 3.96107227497, -1, 3.44330759616
310, 3.97018460657, -1, 3.51252262638
311, 3.97808758147, -1, 3.58188614693
312, 3.98477879237, -1, 3.65137702901
313, 3.99025620104, -1, 3.72097410502
314, 3.99451813902, -1, 3.79065617503
315, 3.99756330808, -1, 3.86040201319
316, 3.99939078063, -1, 3.93019037425
317, 4, -1, 4
318, 3.99939078063, -1, 4.06980962575
319, 3.99756330808, -1, 4.13959798681
320, 3.99451813902, -1, 4.20934382497
321, 3.99025620104, -1, 4.27902589498
322, 3.98477879237, -1, 4.34862297099
323, 3.97808758147, -1, 4.41811385307
324, 3.97018460657, -1, 4.48747737362
325, 3.96107227497, -1, 4.55669240384
326, 3.95075336238, -1, 4.62573786016
327, 3.93923101205, -1, 4.69459271067
328, -3.93923101205, 3, 4.69459271067
329, -3.95075336238, 3, 4.62573786016
330, -3.96107227497, 3, 4.55669240384
331, -3.97018460657, 3, 4.48747737362
332, -3.97808758147, 3, 4.41811385307
333, -3.98477879237, 3, 4.34862297099
334, -3.99025620104, 3, 4.27902589498
335, -3.99451813902, 3, 4.20934382497
336, -3.99756330808, 3, 4.13959798681
337, -3.99939078063, 3, 4.06980962575
338, -4, 3, 4
339, -3.99939078063, 3, 3.93019037425
340, -3.99756330808, 3, 3.86040201319
341, -3.99451813902, 3, 3.79065617503
342, -3.99025620104, 3, 3.72097410502
343, -3.98477879237, 3, 3.65137702901
344, -3.97808758147, 3, 3.58188614693
345, -3.97018460657, 3, 3.51252262638
346, -3.96107227497, 3, 3.44330759616
347, -3.95075336238, 3, 3.37426213984
348, -3.93923101205, 3, 3.30540728933
349, -3.92650873379, 3, 3.23676401849
350, -3.91259040294, 3, 3.16835323673
351, -3.89748025914, 3, 3.10019578262
352, -3.8811829051, 3, 3.0323124176
353, -3.86370330516, 3, 2.96472381959
354, -3.84504678375, 3, 2.89745057673
355, -3.82521902385, 3, 2.83051318111
356, -3.80422606518, 3, 2.7639320225
357, -3.7820743024, 3, 2.69772738217
358, -3.75877048314, 3, 2.6319194267
359, -3.73432170599, 3, 2.56652820182
360, -3.70873541827, 3, 2.50157362634
361, -3.68201941381, 3, 2.43707548604
362, -3.65418183057, 3, 2.3730534277
363, -3.62523114815, 3, 2.30952695304
364, -3.5951761852, 3, 2.24651541284
365, -3.56402609675, 3, 2.18403800104
366, -3.53179037144, 3, 2.12211374886
367, -3.49847882856, 3, 2.06076151901
368, -3.46410161514, 3, 2
369, -3.42866920281, 3, 1.93984770036
370, -3.39219238463, 3, 1.88032294307
371, -3.35468227178, 3, 1.82144385994
372, -3.31615029022, 3, 1.76322838612
373, -3.27660817716, 3, 1.7056942546
374, -3.2360679775, 3, 1.64885899083
375, -3.19454204019, 3, 1.59273990739
376, -3.15204301443, 3, 1.5373540987
377, -3.10858384583, 3, 1.4827184358
378, -3.06417777248, 3, 1.42884956125
379, -3.01883832089, 3, 1.37576388404
380, -2.97257930191, 3, 1.32347757456
381, -2.92541480648, 3, 1.27200655975
382, -2.87735920135, 3, 1.22136651816
383, -2.82842712475, 3, 1.17157287525
384, -2.77863348184, 3, 1.12264079865
385, -2.72799344025, 3, 1.07458519352
386, -2.67652242544, 3, 1.02742069809
387, -2.62423611596, 3, 0.981161679109
388, -2.57115043875, 3, 0.935822227524
389, -2.5172815642, 3, 0.891416154172
390, -2.4626459013, 3, 0.847956985573
391, -2.40726009261, 3, 0.805457959811
392, -2.35114100917, 3, 0.7639320225
393, -2.2943057454, 3, 0.723391822844
394, -2.23677161388, 3, 0.68384970978
395, -2.17855614006, 3, 0.645317728218
396, -2.11967705693, 3, 0.607807615374
397, -2.06015229964, 3, 0.571330797192
398, -2, 3, 0.535898384862
399, -1.93923848099, 3, 0.501521171442
400, -1.87788625114, 3, 0.468209628564
401, -1.81596199896, 3, 0.435973903247
402, -1.75348458716, 3, 0.404823814803
403, -1.69047304696, 3, 0.374768851853
404, -1.6269465723, 3, 0.34581816943
405, -1.56292451396, 3, 0.31798058619
406, -1.49842637366, 3, 0.291264581733
407, -1.43347179818, 3, 0.265678294011
408, -1.3680805733, 3, 0.241229516856
409, -1.30227261783, 3, 0.217925697603
410, -1.2360679775, 3, 0.195773934819
411, -1.16948681889, 3, 0.174780976148
412, -1.10254942327, 3, 0.154953216247
413, -1.03527618041, 3, 0.136296694844
414, -0.967687582399, 3, 0.118817094896
415, -0.899804217375, 3, 0.102519740859
416, -0.831646763271, 3, 0.0874095970648
417, -0.763235981506, 3, 0.0734912662093
418, -0.694592710668, 3, 0.0607689879512
419, -0.625737860161, 3, 0.0492466376194
420, -0.55669240384, 3, 0.0389277250337
421, -0.487477373621, 3, 0.0298153934347
422, -0.418113853071, 3, 0.0219124185269
423, -0.348622970991, 3, 0.015221207633
424, -0.279025894977, 3, 0.0097437989607
425, -0.209343824972, 3, 0.0054818609817
426, -0.13959798681, 3, 0.00243669192362
427, -0.0698096257491, 3, 0.000609219374435
428, 0, 3, 0
429, 0.0698096257491, 3, 0.000609219374435
430, 0.13959798681, 3, 0.00243669192362
431, 0.209343824972, 3, 0.0054818609817
432, 0.279025894977, 3, 0.0097437989607
433, 0.348622970991, 3, 0.015221207633
434, 0.418113853071, 3, 0.0219124185269
435, 0.487477373621, 3, 0.0298153934347
436, 0.55669240384, 3, 0.0389277250337
437, 0.625737860161, 3, 0.0492466376194
438, 0.694592710668, 3, 0.0607689879512
439, 0.763235981506, 3, 0.0734912662093
440, 0.831646763271, 3, 0.0874095970648
441, 0.899804217375, 3, 0.102519740859
442, 0.967687582399, 3, 0.118817094896
443, 1.03527618041, 3, 0.136296694844
444, 1.10254942327, 3, 0.154953216247
445, 1.16948681889, 3, 0.174780976148
446, 1.2360679775, 3, 0.195773934819
447, 1.30227261783, 3, 0.217925697603
448, 1.3680805733, 3, 0.241229516856
449, 1.43347179818, 3, 0.265678294011
450, 1.49842637366, 3, 0.291264581733
451, 1.56292451396, 3, 0.31798058619
452, 1.6269465723, 3, 0.34581816943
453, 1.69047304696, 3, 0.374768851853
454, 1.75348458716, 3, 0.404823814803
455, 1.81596199896, 3, 0.435973903247
456, 1.87788625114, 3, 0.468209628564
457, 1.93923848099, 3, 0.501521171442
458, 2, 3, 0.535898384862
459, 2.06015229964, 3, 0.571330797192
460, 2.11967705693, 3, 0.607807615374
461, 2.17855614006, 3, 0.645317728218
462, 2.23677161388, 3, 0.68384970978
463, 2.2943057454, 3, 0.723391822844
464, 2.35114100917, 3, 0.7639320225
465, 2.40726009261, 3, 0.805457959811
466, 2.4626459013, 3, 0.847956985573
467, 2.5172815642, 3, 0.891416154172
468, 2.57115043875, 3, 0.935822227524
469, 2.62423611596, 3, 0.981161679109
470, 2.67652242544, 3, 1.02742069809
471, 2.72799344025, 3, 1.07458519352
472, 2.77863348184, 3, 1.12264079865
473, 2.82842712475, 3, 1.17157287525
474, 2.87735920135, 3, 1.22136651816
475, 2.92541480648, 3, 1.27200655975
476, 2.97257930191, 3, 1.32347757456
477, 3.01883832089, 3, 1.37576388404
478, 3.06417777248, 3, 1.42884956125
479, 3.10858384583, 3, 1.4827184358
480, 3.15204301443, 3, 1.5373540987
481, 3.19454204019, 3, 1.59273990739
482, 3.2360679775, 3, 1.64885899083
483, 3.27660817716, 3, 1.7056942546
484, 3.31615029022, 3, 1.76322838612
485, 3.35468227178, 3, 1.82144385994
486, 3.39219238463, 3, 1.88032294307
487, 3.42866920281, 3, 1.93984770036
488, 3.46410161514, 3, 2
489, 3.49847882856, 3, 2.06076151901
490, 3.53179037144, 3, 2.12211374886
491, 3.56402609675, 3, 2.18403800104
492, 3.5951761852, 3, 2.24651541284
493, 3.62523114815, 3, 2.30952695304
494, 3.65418183057, 3, 2.3730534277
495, 3.68201941381, 3, 2.43707548604
496, 3.70873541827, 3, 2.50157362634
497, 3.73432170599, 3, 2.56652820182
498, 3.75877048314, 3, 2.6319194267
499, 3.7820743024, 3, 2.69772738217
500, 3.80422606518, 3, 2.7639320225
501, 3.82521902385, 3, 2.83051318111
502, 3.84504678375, 3, 2.89745057673
503, 3.86370330516, 3, 2.96472381959
504, 3.8811829051, 3, 3.0323124176
505, 3.89748025914, 3, 3.10019578262
506, 3.91259040294, 3, 3.16835323673
507, 3.92650873379, 3, 3.23676401849
508, 3.93923101205, 3, 3.30540728933
509, 3.95075336238, 3, 3.37426213984
510, 3.96107227497, 3, 3.44330759616
511, 3.97018460657, 3, 3.51252262638
512, 3.97808758147, 3, 3.58188614693
513, 3.98477879237, 3, 3.65137702901
514, 3.99025620104, 3, 3.72097410502
515, 3.99451813902, 3, 3.79065617503
516, 3.99756330808, 3, 3.86040201319
517, 3.99939078063, 3, 3.93019037425
518, 4, 3, 4
519, 3.99939078063, 3, 4.06980962575
520, 3.99756330808, 3, 4.13959798681
521, 3.99451813902, 3, 4.20934382497
522, 3.99025620104, 3, 4.27902589498
523, 3.98477879237, 3, 4.34862297099
524, 3.97808758147, 3, 4.41811385307
525, 3.97018460657, 3, 4.48747737362
526, 3.96107227497, 3, 4.55669240384
527, 3.95075336238, 3, 4.62573786016
528, 3.93923101205, 3, 4.69459271067
529, -3.44682713554, -1, 4.60776862183
530, -3.45690919208, -1, 4.54752062764
531, -3.4659382406, -1, 4.48710585336
532, -3.47391153074, -1, 4.42654270192
533, -3.48082663379, -1, 4.36584962144
534, -3.48668144332, -1, 4.30504509962
535, -3.49147417591, -1, 4.2441476581
536, -3.49520337164, -1, 4.18317584685
537, -3.49786789457, -1, 4.12214823846
538, -3.49946693305, -1, 4.06108342253
539, -3.5, -1, 4
540, -3.49946693305, -1, 3.93891657747
541, -3.49786789457, -1, 3.87785176154
542, -3.49520337164, -1, 3.81682415315
543, -3.49147417591, -1, 3.7558523419
544, -3.48668144332, -1, 3.69495490038
545, -3.48082663379, -1, 3.63415037856
546, -3.47391153074, -1, 3.57345729808
547, -3.4659382406, -1, 3.51289414664
548, -3.45690919208, -1, 3.45247937236
549, -3.44682713554, -1, 3.39223137817
550, -3.43569514207, -1, 3.33216851618
551, -3.42351660257, -1, 3.27230908214
552, -3.41029522675, -1, 3.2126713098
553, -3.39603504197, -1, 3.1532733654
554, -3.38074039201, -1, 3.09413334214
555, -3.36441593578, -1, 3.03526925464
556, -3.34706664587, -1, 2.97669903347
557, -3.32869780703, -1, 2.91844051969
558, -3.3093150146, -1, 2.8605114594
559, -3.28892417275, -1, 2.80292949836
560, -3.26753149274, -1, 2.74571217659
561, -3.24514349098, -1, 2.68887692304
562, -3.22176698708, -1, 2.63244105029
563, -3.19740910175, -1, 2.57642174923
564, -3.17207725463, -1, 2.52083608391
565, -3.14577916205, -1, 2.46570098624
566, -3.11852283466, -1, 2.41103325091
567, -3.09031657501, -1, 2.35684953025
568, -3.06116897499, -1, 2.30316632914
569, -3.03108891325, -1, 2.25
570, -3.00008555246, -1, 2.19736673781
571, -2.96816833655, -1, 2.14528257518
572, -2.93534698781, -1, 2.09376337745
573, -2.90163150394, -1, 2.04282483785
574, -2.86703215501, -1, 1.99248247277
575, -2.83155948031, -1, 1.94275161698
576, -2.79522428517, -1, 1.89364741897
577, -2.75803763762, -1, 1.84518483636
578, -2.7200108651, -1, 1.79737863133
579, -2.68115555092, -1, 1.7502433661
580, -2.64148353078, -1, 1.70379339853
581, -2.60100688917, -1, 1.65804287774
582, -2.55973795567, -1, 1.61300573978
583, -2.51768930119, -1, 1.56869570339
584, -2.47487373415, -1, 1.52512626585
585, -2.43130429661, -1, 1.48231069881
586, -2.38699426022, -1, 1.44026204433
587, -2.34195712226, -1, 1.39899311083
588, -2.29620660147, -1, 1.35851646922
589, -2.2497566339, -1, 1.31884444908
590, -2.20262136867, -1, 1.2799891349
591, -2.15481516364, -1, 1.24196236238
592, -2.10635258103, -1, 1.20477571483
593, -2.05724838302, -1, 1.16844051969
594, -2.00751752723, -1, 1.13296784499
595, -1.95717516215, -1, 1.09836849606
596, -1.90623662255, -1, 1.06465301219
597, -1.85471742482, -1, 1.03183166345
598, -1.80263326219, -1, 0.999914447543
599, -1.75, -1, 0.968911086754
600, -1.69683367086, -1, 0.938831025012
601, -1.64315046975, -1, 0.909683424994
602, -1.58896674909, -1, 0.881477165341
603, -1.53429901376, -1, 0.854220837953
604, -1.47916391609, -1, 0.827922745372
605, -1.42357825077, -1, 0.802590898251
606, -1.36755894971, -1, 0.778233012916
607, -1.31112307696, -1, 0.754856509016
608, -1.25428782341, -1, 0.73246850726
609, -1.19707050164, -1, 0.711075827249
610, -1.1394885406, -1, 0.690684985402
611, -1.08155948031, -1, 0.671302192967
612, -1.02330096653, -1, 0.652933354129
613, -0.964730745359, -1, 0.635584064216
614, -0.905866657859, -1, 0.619259607988
615, -0.846726634599, -1, 0.603964958034
616, -0.787328690204, -1, 0.589704773252
617, -0.727690917862, -1, 0.576483397432
618, -0.667831483818, -1, 0.564304857933
619, -0.607768621834, -1, 0.553172864457
620, -0.547520627641, -1, 0.543090807917
621, -0.48710585336, -1, 0.534061759405
622, -0.426542701918, -1, 0.526088469255
623, -0.365849621437, -1, 0.519173366211
624, -0.305045099617, -1, 0.513318556679
625, -0.244147658104, -1, 0.508525824091
626, -0.18317584685, -1, 0.504796628359
627, -0.122148238459, -1, 0.502132105433
628, -0.0610834225305, -1, 0.500533066953
629, 0, -1, 0.5
630, 0.0610834225305, -1, 0.500533066953
631, 0.122148238459, -1, 0.502132105433
632, 0.18317584685, -1, 0.504796628359
633, 0.244147658104, -1, 0.508525824091
634, 0.305045099617, -1, 0.513318556679
635, 0.365849621437, -1, 0.519173366211
636, 0.426542701918, -1, 0.526088469255
637, 0.48710585336, -1, 0.534061759405
638, 0.547520627641, -1, 0.543090807917
639, 0.607768621834, -1, 0.553172864457
640, 0.667831483818, -1, 0.564304857933
641, 0.727690917862, -1, 0.576483397432
642, 0.787328690204, -1, 0.589704773252
643, 0.846726634599, -1, 0.603964958034
644, 0.905866657859, -1, 0.619259607988
645, 0.964730745359, -1, 0.635584064216
646, 1.02330096653, -1, 0.652933354129
647, 1.08155948031, -1, 0.671302192967
648, 1.1394885406, -1, 0.690684985402
649, 1.19707050164, -1, 0.711075827249
650, 1.25428782341, -1, 0.73246850726
651, 1.31112307696, -1, 0.754856509016
652, 1.36755894971, -1, 0.778233012916
653, 1.42357825077, -1, 0.802590898251
654, 1.47916391609, -1, 0.827922745372
655, 1.53429901376, -1, 0.854220837953
656, 1.58896674909, -1, 0.881477165341
657, 1.64315046975, -1, 0.909683424994
658, 1.69683367086, -1, 0.938831025012
659, 1.75, -1, 0.968911086754
660, 1.80263326219, -1, 0.999914447543
661, 1.85471742482, -1, 1.03183166345
662, 1.90623662255, -1, 1.06465301219
663, 1.95717516215, -1, 1.09836849606
664, 2.00751752723, -1, 1.13296784499
665, 2.05724838302, -1, 1.16844051969
666, 2.10635258103, -1, 1.20477571483
667, 2.15481516364, -1, 1.24196236238
668, 2.20262136867, -1, 1.2799891349
669, 2.2497566339, -1, 1.31884444908
670, 2.29620660147, -1, 1.35851646922
671, 2.34195712226, -1, 1.39899311083
672, 2.38699426022, -1, 1.44026204433
673, 2.43130429661, -1, 1.48231069881
674, 2.47487373415, -1, 1.52512626585
675, 2.51768930119, -1, 1.56869570339
676, 2.55973795567, -1, 1.61300573978
677, 2.60100688917, -1, 1.65804287774
678, 2.64148353078, -1, 1.70379339853
679, 2.68115555092, -1, 1.7502433661
680, 2.7200108651, -1, 1.79737863133
681, 2.75803763762, -1, 1.84518483636
682, 2.79522428517, -1, 1.89364741897
683, 2.83155948031, -1, 1.94275161698
684, 2.86703215501, -1, 1.99248247277
685, 2.90163150394, -1, 2.04282483785
686, 2.93534698781, -1, 2.09376337745
687, 2.96816833655, -1, 2.14528257518
688, 3.00008555246, -1, 2.19736673781
689, 3.03108891325, -1, 2.25
690, 3.06116897499, -1, 2.30316632914
691, 3.09031657501, -1, 2.35684953025
692, 3.11852283466, -1, 2.41103325091
693, 3.14577916205, -1, 2.46570098624
694, 3.17207725463, -1, 2.52083608391
695, 3.19740910175, -1, 2.57642174923
696, 3.22176698708, -1, 2.63244105029
697, 3.24514349098, -1, 2.68887692304
698, 3.26753149274, -1, 2.74571217659
699, 3.28892417275, -1, 2.80292949836
700, 3.3093150146, -1, 2.8605114594
701, 3.32869780703, -1, 2.91844051969
702, 3.34706664587, -1, 2.97669903347
703, 3.36441593578, -1, 3.03526925464
704, 3.38074039201, -1, 3.09413334214
705, 3.39603504197, -1, 3.1532733654
706, 3.41029522675, -1, 3.2126713098
707, 3.42351660257, -1, 3.27230908214
708, 3.43569514207, -1, 3.33216851618
709, 3.44682713554, -1, 3.39223137817
710, 3.45690919208, -1, 3.45247937236
711, 3.4659382406, -1, 3.51289414664
712, 3.47391153074, -1, 3.57345729808
713, 3.48082663379, -1, 3.63415037856
714, 3.48668144332, -1, 3.69495490038
715, 3.49147417591, -1, 3.7558523419
716, 3.49520337164, -1, 3.81682415315
717, 3.49786789457, -1, 3.87785176154
718, 3.49946693305, -1, 3.93891657747
719, 3.5, -1, 4
720, 3.49946693305, -1, 4.06108342253
721, 3.49786789457, -1, 4.12214823846
722, 3.49520337164, -1, 4.18317584685
723, 3.49147417591, -1, 4.2441476581
724, 3.48668144332, -1, 4.30504509962
725, 3.48082663379, -1, 4.36584962144
726, 3.47391153074, -1, 4.42654270192
727, 3.4659382406, -1, 4.48710585336
728, 3.45690919208, -1, 4.54752062764
729, 3.44682713554, -1, 4.60776862183
730, -3.44682713554, 3, 4.60776862183
731, -3.45690919208, 3, 4.54752062764
732, -3.4659382406, 3, 4.48710585336
733, -3.47391153074, 3, 4.42654270192
734, -3.48082663379, 3, 4.36584962144
735, -3.48668144332, 3, 4.30504509962
736, -3.49147417591, 3, 4.2441476581
737, -3.49520337164, 3, 4.18317584685
738, -3.49786789457, 3, 4.12214823846
739, -3.49946693305, 3, 4.06108342253
740, -3.5, 3, 4
741, -3.49946693305, 3, 3.93891657747
742, -3.49786789457, 3, 3.87785176154
743, -3.49520337164, 3, 3.81682415315
744, -3.49147417591, 3, 3.7558523419
745, -3.48668144332, 3, 3.69495490038
746, -3.48082663379, 3, 3.63415037856
747, -3.47391153074, 3, 3.57345729808
748, -3.4659382406, 3, 3.51289414664
749, -3.45690919208, 3, 3.45247937236
750, -3.44682713554, 3, 3.39223137817
751, -3.43569514207, 3, 3.33216851618
752, -3.42351660257, 3, 3.27230908214
753, -3.41029522675, 3, 3.2126713098
754, -3.39603504197, 3, 3.1532733654
755, -3.38074039201, 3, 3.09413334214
756, -3.36441593578, 3, 3.03526925464
757, -3.34706664587, 3, 2.97669903347
758, -3.32869780703, 3, 2.91844051969
759, -3.3093150146, 3, 2.8605114594
760, -3.28892417275, 3, 2.80292949836
761, -3.26753149274, 3, 2.74571217659
762, -3.24514349098, 3, 2.68887692304
763, -3.22176698708, 3, 2.63244105029
764, -3.19740910175, 3, 2.57642174923
765, -3.17207725463, 3, 2.52083608391
766, -3.14577916205, 3, 2.46570098624
767, -3.11852283466, 3, 2.41103325091
768, -3.09031657501, 3, 2.35684953025
769, -3.06116897499, 3, 2.30316632914
770, -3.03108891325, 3, 2.25
771, -3.00008555246, 3, 2.19736673781
772, -2.96816833655, 3, 2.14528257518
773, -2.93534698781, 3, 2.09376337745
774, -2.90163150394, 3, 2.04282483785
775, -2.86703215501, 3, 1.99248247277
776, -2.83155948031, 3, 1.94275161698
777, -2.79522428517, 3, 1.89364741897
778, -2.75803763762, 3, 1.84518483636
779, -2.7200108651, 3, 1.79737863133
780, -2.68115555092, 3, 1.7502433661
781, -2.64148353078, 3, 1.70379339853
782, -2.60100688917, 3, 1.65804287774
783, -2.55973795567, 3, 1.61300573978
784, -2.51768930119, 3, 1.56869570339
785, -2.47487373415, 3, 1.52512626585
786, -2.43130429661, 3, 1.48231069881
787, -2.38699426022, 3, 1.44026204433
788, -2.34195712226, 3, 1.39899311083
789, -2.29620660147, 3, 1.35851646922
790, -2.2497566339, 3, 1.31884444908
791, -2.20262136867, 3, 1.2799891349
792, -2.15481516364, 3, 1.24196236238
793, -2.10635258103, 3, 1.20477571483
794, -2.05724838302, 3, 1.16844051969
795, -2.00751752723, 3, 1.13296784499
796, -1.95717516215, 3, 1.09836849606
797, -1.90623662255, 3, 1.06465301219
798, -1.85471742482, 3, 1.03183166345
799, -1.80263326219, 3, 0.999914447543
800, -1.75, 3, 0.968911086754
801, -1.69683367086, 3, 0.938831025012
802, -1.64315046975, 3, 0.909683424994
803, -1.58896674909, 3, 0.881477165341
804, -1.53429901376, 3, 0.854220837953
805, -1.47916391609, 3, 0.827922745372
806, -1.42357825077, 3, 0.802590898251
807, -1.36755894971, 3, 0.778233012916
808, -1.31112307696, 3, 0.754856509016
809, -1.25428782341, 3, 0.73246850726
810, -1.19707050164, 3, 0.711075827249
811, -1.1394885406, 3, 0.690684985402
812, -1.08155948031, 3, 0.671302192967
813, -1.02330096653, 3, 0.652933354129
814, -0.964730745359, 3, 0.635584064216
815, -0.905866657859, 3, 0.619259607988
816, -0.846726634599, 3, 0.603964958034
817, -0.787328690204, 3, 0.589704773252
818, -0.727690917862, 3, 0.576483397432
819, -0.667831483818, 3, 0.564304857933
820, -0.607768621834, 3, 0.553172864457
821, -0.547520627641, 3, 0.543090807917
822, -0.48710585336, 3, 0.534061759405
823, -0.426542701918, 3, 0.526088469255
824, -0.365849621437, 3, 0.519173366211
825, -0.305045099617, 3, 0.513318556679
826, -0.244147658104, 3, 0.508525824091
827, -0.18317584685, 3, 0.504796628359
828, -0.122148238459, 3, 0.502132105433
829, -0.0610834225305, 3, 0.500533066953
830, 0, 3, 0.5
831, 0.0610834225305, 3, 0.500533066953
832, 0.122148238459, 3, 0.502132105433
833, 0.18317584685, 3, 0.504796628359
834, 0.244147658104, 3, 0.508525824091
835, 0.305045099617, 3, 0.513318556679
836, 0.365849621437, 3, 0.519173366211
837, 0.426542701918, 3, 0.526088469255
838, 0.48710585336, 3, 0.534061759405
839, 0.547520627641, 3, 0.543090807917
840, 0.607768621834, 3, 0.553172864457
841, 0.667831483818, 3, 0.564304857933
842, 0.727690917862, 3, 0.576483397432
843, 0.787328690204, 3, 0.589704773252
844, 0.846726634599, 3, 0.603964958034
845, 0.905866657859, 3, 0.619259607988
846, 0.964730745359, 3, 0.635584064216
847, 1.02330096653, 3, 0.652933354129
848, 1.08155948031, 3, 0.671302192967
849, 1.1394885406, 3, 0.690684985402
850, 1.19707050164, 3, 0.711075827249
851, 1.25428782341, 3, 0.73246850726
852, 1.31112307696, 3, 0.754856509016
853, 1.36755894971, 3, 0.778233012916
854, 1.42357825077, 3, 0.802590898251
855, 1.47916391609, 3, 0.827922745372
856, 1.53429901376, 3, 0.854220837953
857, 1.58896674909, 3, 0.881477165341
858, 1.64315046975, 3, 0.909683424994
859, 1.69683367086, 3, 0.938831025012
860, 1.75, 3, 0.968911086754
861, 1.80263326219, 3, 0.999914447543
862, 1.85471742482, 3, 1.03183166345
863, 1.90623662255, 3, 1.06465301219
864, 1.95717516215, 3, 1.09836849606
865, 2.00751752723, 3, 1.13296784499
866, 2.05724838302, 3, 1.16844051969
867, 2.10635258103, 3, 1.20477571483
868, 2.15481516364, 3, 1.24196236238
869, 2.20262136867, 3, 1.2799891349
870, 2.2497566339, 3, 1.31884444908
871, 2.29620660147, 3, 1.35851646922
872, 2.34195712226, 3, 1.39899311083
873, 2.38699426022, 3, 1.44026204433
874, 2.43130429661, 3, 1.48231069881
875, 2.47487373415, 3, 1.52512626585
876, 2.51768930119, 3, 1.56869570339
877, 2.55973795567, 3, 1.61300573978
878, 2.60100688917, 3, 1.65804287774
879, 2.64148353078, 3, 1.70379339853
880, 2.68115555092, 3, 1.7502433661
881, 2.7200108651, 3, 1.79737863133
882, 2.75803763762, 3, 1.84518483636
883, 2.79522428517, 3, 1.89364741897
884, 2.83155948031, 3, 1.94275161698
885, 2.86703215501, 3, 1.99248247277
886, 2.90163150394, 3, 2.04282483785
887, 2.93534698781, 3, 2.09376337745
888, 2.96816833655, 3, 2.14528257518
889, 3.00008555246, 3, 2.19736673781
890, 3.03108891325, 3, 2.25
891, 3.06116897499, 3, 2.30316632914
892, 3.09031657501, 3, 2.35684953025
893, 3.11852283466, 3, 2.41103325091
894, 3.14577916205, 3, 2.46570098624
895, 3.17207725463, 3, 2.52083608391
896, 3.19740910175, 3, 2.57642174923
897, 3.22176698708, 3, 2.63244105029
898, 3.24514349098, 3, 2.68887692304
899, 3.26753149274, 3, 2.74571217659
900, 3.28892417275, 3, 2.80292949836
901, 3.3093150146, 3, 2.8605114594
902, 3.32869780703, 3, 2.91844051969
903, 3.34706664587, 3, 2.97669903347
904, 3.36441593578, 3, 3.03526925464
905, 3.38074039201, 3, 3.09413334214
906, 3.39603504197, 3, 3.1532733654
907, 3.41029522675, 3, 3.2126713098
908, 3.42351660257, 3, 3.27230908214
909, 3.43569514207, 3, 3.33216851618
910, 3.44682713554, 3, 3.39223137817
911, 3.45690919208, 3, 3.45247937236
912, 3.4659382406, 3, 3.51289414664
913, 3.47391153074, 3, 3.57345729808
914, 3.48082663379, 3, 3.63415037856
915, 3.48668144332, 3, 3.69495490038
916, 3.49147417591, 3, 3.7558523419
917, 3.49520337164, 3, 3.81682415315
918, 3.49786789457, 3, 3.87785176154
919, 3.49946693305, 3, 3.93891657747
920, 3.5, 3, 4
921, 3.49946693305, 3, 4.06108342253
922, 3.49786789457, 3, 4.12214823846
923, 3.49520337164, 3, 4.18317584685
924, 3.49147417591, 3, 4.2441476581
925, 3.48668144332, 3, 4.30504509962
926, 3.48082663379, 3, 4.36584962144
927, 3.47391153074, 3, 4.42654270192
928, 3.4659382406, 3, 4.48710585336
929, 3.45690919208, 3, 4.54752062764
930, 3.44682713554, 3, 4.60776862183
*ELEMENT, TYPE=C3D8, ELSET=SHEET
1, 1, 2, 23, 22, 43, 44, 65, 64
2, 2, 3, 24, 23, 44, 45, 66, 65
3, 3, 4, 25, 24, 45, 46, 67, 66
4, 4, 5, 26, 25, 46, 47, 68, 67
5, 5, 6, 27, 26, 47, 48, 69, 68
6, 6, 7, 28, 27, 48, 49, 70, 69
7, 7, 8, 29, 28, 49, 50, 71, 70
8, 8, 9, 30, 29, 50, 51, 72, 71
9, 9, 10, 31, 30, 51, 52, 73, 72
10, 10, 11, 32, 31, 52, 53, 74, 73
11, 11, 12, 33, 32, 53, 54, 75, 74
12, 12, 13, 34, 33, 54, 55, 76, 75
13, 13, 14, 35, 34, 55, 56, 77, 76
14, 14, 15, 36, 35, 56, 57, 78, 77
15, 15, 16, 37, 36, 57, 58, 79, 78
16, 16, 17, 38, 37, 58, 59, 80, 79
17, 17, 18, 39, 38, 59, 60, 81, 80
18, 18, 19, 40, 39, 60, 61, 82, 81
19, 19, 20, 41, 40, 61, 62, 83, 82
20, 20, 21, 42, 41, 62, 63, 84, 83
21, 43, 44, 65, 64, 85, 86, 107, 106
22, 44, 45, 66, 65, 86, 87, 108, 107
23, 45, 46, 67, 66, 87, 88, 109, 108
24, 46, 47, 68, 67, 88, 89, 110, 109
25, 47, 48, 69, 68, 89, 90, 111, 110
26, 48, 49, 70, 69, 90, 91, 112, 111
27, 49, 50, 71, 70, 91, 92, 113, 112
28, 50, 51, 72, 71, 92, 93, 114, 113
29, 51, 52, 73, 72, 93, 94, 115, 114
30, 52, 53, 74, 73, 94, 95, 116, 115
31, 53, 54, 75, 74, 95, 96, 117, 116
32, 54, 55, 76, 75, 96, 97, 118, 117
33, 55, 56, 77, 76, 97, 98, 119, 118
34, 56, 57, 78, 77, 98, 99, 120, 119
35, 57, 58, 79, 78, 99, 100, 121, 120
36, 58, 59, 80, 79, 100, 101, 122, 121
37, 59, 60, 81, 80, 101, 102, 123, 122
38, 60, 61, 82, 81, 102, 103, 124, 123
39, 61, 62, 83, 82, 103, 104, 125, 124
40, 62, 63, 84, 83, 104, 105, 126, 125
*ELEMENT, TYPE=C3D8, ELSET=TOOL
41, 127, 128, 329, 328, 529, 530, 731, 730
42, 128, 129, 330, 329, 530, 531, 732, 731
43, 129, 130, 331, 330, 531, 532, 733, 732
44, 130, 131, 332, 331, 532, 533, 734, 733
45, 131, 132, 333, 332, 533, 534, 735, 734
46, 132, 133, 334, 333, 534, 535, 736, 735
47, 133, 134, 335, 334, 535, 536, 737, 736
48, 134, 135, 336, 335, 536, 537, 738, 737
49, 135, 136, 337, 336, 537, 538, 739, 738
50, 136, 137, 338, 337, 538, 539, 740, 739
51, 137, 138, 339, 338, 539, 540, 741, 740
52, 138, 139, 340, 339, 540, 541, 742, 741
53, 139, 140, 341, 340, 541, 542, 743, 742
54, 140, 141, 342, 341, 542, 543, 744, 743
55, 141, 142, 343, 342, 543, 544, 745, 744
56, 142, 143, 344, 343, 544, 545, 746, 745
57, 143, 144, 345, 344, 545, 546, 747, 746
58, 144, 145, 346, 345, 546, 547, 748, 747
59, 145, 146, 347, 346, 547, 548, 749, 748
60, 146, 147, 348, 347, 548, 549, 750, 749
61, 147, 148, 349, 348, 549, 550, 751, 750
62, 148, 149, 350, 349, 550, 551, 752, 751
63, 149, 150, 351, 350, 551, 552, 753, 752
64, 150, 151, 352, 351, 552, 553, 754, 753
65, 151, 152, 353, 352, 553, 554, 755, 754
66, 152, 153, 354, 353, 554, 555, 756, 755
67, 153, 154, 355, 354, 555, 556, 757, 756
68, 154, 155, 356, 355, 556, 557, 758, 757
69, 155, 156, 357, 356, 557, 558, 759, 758
70, 156, 157, 358, 357, 558, 559, 760, 759
71, 157, 158, 359, 358, 559, 560, 761, 760
72, 158, 159, 360, 359, 560, 561, 762, 761
73, 159, 160, 361, 360, 561, 562, 763, 762
74, 160, 161, 362, 361, 562, 563, 764, 763
75, 161, 162, 363, 362, 563, 564, 765, 764
76, 162, 163, 364, 363, 564, 565, 766, 765
77, 163, 164, 365, 364, 565, 566, 767, 766
78, 164, 165, 366, 365, 566, 567, 768, 767
79, 165, 166, 367, 366, 567, 568, 769, 768
80, 166, 167, 368, 367, 568, 569, 770, 769
81, 167, 168, 369, 368, 569, 570, 771, 770
82, 168, 169, 370, 369, 570, 571, 772, 771
83, 169, 170, 371, 370, 571, 572, 773, 772
84, 170, 171, 372, 371, 572, 573, 774, 773
85, 171, 172, 373, 372, 573, 574, 775, 774
86, 172, 173, 374, 373, 574, 575, 776, 775
87, 173, 174, 375, 374, 575, 576, 777, 776
88, 174, 175, 376, 375, 576, 577, 778, 777
89, 175, 176, 377, 376, 577, 578, 779, 778
90, 176, 177, 378, 377, 578, 579, 780, 779
91, 177, 178, 379, 378, 579, 580, 781, 780
92, 178, 179, 380, 379, 580, 581, 782, 781
93, 179, 180, 381, 380, 581, 582, 783, 782
94, 180, 181, 382, 381, 582, 583, 784, 783
95, 181, 182, 383, 382, 583, 584, 785, 784
96, 182, 183, 384, 383, 584, 585, 786, 785
97, 183, 184, 385, 384, 585, 586, 787, 786
98, 184, 185, 386, 385, 586, 587, 788, 787
99, 185, 186, 387, 386, 587, 588, 789, 788
100, 186, 187, 388, 387, 588, 589, 790, 789
101, 187, 188, 389, 388, 589, 590, 791, 790
102, 188, 189, 390, 389, 590, 591, 792, 791
103, 189, 190, 391, 390, 591, 592, 793, 792
104, 190, 191, 392, 391, 592, 593, 794, 793
105, 191, 192, 393, 392, 593, 594, 795, 794
106, 192, 193, 394, 393, 594, 595, 796, 795
107, 193, 194, 395, 394, 595, 596, 797, 796
108, 194, 195, 396, 395, 596, 597, 798, 797
109, 195, 196, 397, 396, 597, 598, 799, 798
110, 196, 197, 398, 397, 598, 599, 800, 799
111, 197, 198, 399, 398, 599, 600, 801, 800
112, 198, 199, 400, 399, 600, 601, 802, 801
113, 199, 200, 401, 400, 601, 602, 803, 802
114, 200, 201, 402, 401, 602, 603, 804, 803
115, 201, 202, 403, 402, 603, 604, 805, 804
116, 202, 203, 404, 403, 604, 605, 806, 805
117, 203, 204, 405, 404, 605, 606, 807, 806
118, 204, 205, 406, 405, 606, 607, 808, 807
119, 205, 206, 407, 406, 607, 608, 809, 808
120, 206, 207, 408, 407, 608, 609, 810, 809
121, 207, 208, 409, 408, 609, 610, 811, 810
122, 208, 209, 410, 409, 610, 611, 812, 811
123, 209, 210, 411, 410, 611, 612, 813, 812
124, 210, 211, 412, 411, 612, 613, 814, 813
125, 211, 212, 413, 412, 613, 614, 815, 814
126, 212, 213, 414, 413, 614, 615, 816, 815
127, 213, 214, 415, 414, 615, 616, 817, 816
128, 214, 215, 416, 415, 616, 617, 818, 817
129, 215, 216, 417, 416, 617, 618, 819, 818
130, 216, 217, 418, 417, 618, 619, 820, 819
131, 217, 218, 419, 418, 619, 620, 821, 820
132, 218, 219, 420, 419, 620, 621, 822, 821
133, 219, 220, 421, 420, 621, 622, 823, 822
134, 220, 221, 422, 421, 622, 623, 824, 823
135, 221, 222, 423, 422, 623, 624, 825, 824
136, 222, 223, 424, 423, 624, 625, 826, 825
137, 223, 224, 425, 424, 625, 626, 827, 826
138, 224, 225, 426, 425, 626, 627, 828, 827
139, 225, 226, 427, 426, 627, 628, 829, 828
140, 226, 227, 428, 427, 628, 629, 830, 829
141, 227, 228, 429, 428, 629, 630, 831, 830
142, 228, 229, 430, 429, 630, 631, 832, 831
143, 229, 230, 431, 430, 631, 632, 833, 832
144, 230, 231, 432, 431, 632, 633, 834, 833
145, 231, 232, 433, 432, 633, 634, 835, 834
146, 232, 233, 434, 433, 634, 635, 836, 835
147, 233, 234, 435, 434, 635, 636, 837, 836
148, 234, 235, 436, 435, 636, 637, 838, 837
149, 235, 236, 437, 436, 637, 638, 839, 838
150, 236, 237, 438, 437, 638, 639, 840, 839
151, 237, 238, 439, 438, 639, 640, 841, 840
152, 238, 239, 440, 439, 640, 641, 842, 841
153, 239, 240, 441, 440, 641, 642, 843, 842
154, 240, 241, 442, 441, 642, 643, 844, 843
155, 241, 242, 443, 442, 643, 644, 845, 844
156, 242, 243, 444, 443, 644, 645, 846, 845
157, 243, 244, 445, 444, 645, 646, 847, 846
158, 244, 245, 446, 445, 646, 647, 848, 847
159, 245, 246, 447, 446, 647, 648, 849, 848
160, 246, 247, 448, 447, 648, 649, 850, 849
161, 247, 248, 449, 448, 649, 650, 851, 850
162, 248, 249, 450, 449, 650, 651, 852, 851
163, 249, 250, 451, 450, 651, 652, 853, 852
164, 250, 251, 452, 451, 652, 653, 854, 853
165, 251, 252, 453, 452, 653, 654, 855, 854
166, 252, 253, 454, 453, 654, 655, 856, 855
167, 253, 254, 455, 454, 655, 656, 857, 856
168, 254, 255, 456, 455, 656, 657, 858, 857
169, 255, 256, 457, 456, 657, 658, 859, 858
170, 256, 257, 458, 457, 658, 659, 860, 859
171, 257, 258, 459, 458, 659, 660, 861, 860
172, 258, 259, 460, 459, 660, 661, 862, 861
173, 259, 260, 461, 460, 661, 662, 863, 862
174, 260, 261, 462, 461, 662, 663, 864, 863
175, 261, 262, 463, 462, 663, 664, 865, 864
176, 262, 263, 464, 463, 664, 665, 866, 865
177, 263, 264, 465, 464, 665, 666, 867, 866
178, 264, 265, 466, 465, 666, 667, 868, 867
179, 265, 266, 467, 466, 667, 668, 869, 868
180, 266, 267, 468, 467, 668, 669, 870, 869
181, 267, 268, 469, 468, 669, 670, 871, 870
182, 268, 269, 470, 469, 670, 671, 872, 871
183, 269, 270, 471, 470, 671, 672, 873, 872
184, 270, 271, 472, 471, 672, 673, 874, 873
185, 271, 272, 473, 472, 673, 674, 875, 874
186, 272, 273, 474, 473, 674, 675, 876, 875
187, 273, 274, 475, 474, 675, 676, 877, 876
188, 274, 275, 476, 475, 676, 677, 878, 877
189, 275, 276, 477, 476, 677, 678, 879, 878
190, 276, 277, 478, 477, 678, 679, 880, 879
191, 277, 278, 479, 478, 679, 680, 881, 880
192, 278, 279, 480, 479, 680, 681, 882, 881
193, 279, 280, 481, 480, 681, 682, 883, 882
194, 280, 281, 482, 481, 682, 683, 884, 883
195, 281, 282, 483, 482, 683, 684, 885, 884
196, 282, 283, 484, 483, 684, 685, 886, 885
197, 283, 284, 485, 484, 685, 686, 887, 886
198, 284, 285, 486, 485, 686, 687, 888, 887
199, 285, 286, 487, 486, 687, 688, 889, 888
200, 286, 287, 488, 487, 688, 689, 890, 889
201, 287, 288, 489, 488, 689, 690, 891, 890
202, 288, 289, 490, 489, 690, 691, 892, 891
203, 289, 290, 491, 490, 691, 692, 893, 892
204, 290, 291, 492, 491, 692, 693, 894, 893
205, 291, 292, 493, 492, 693, 694, 895, 894
206, 292, 293, 494, 493, 694, 695, 896, 895
207, 293, 294, 495, 494, 695, 696, 897, 896
208, 294, 295, 496, 495, 696, 697, 898, 897
209, 295, 296, 497, 496, 697, 698, 899, 898
210, 296, 297, 498, 497, 698, 699, 900, 899
211, 297, 298, 499, 498, 699, 700, 901, 900
212, 298, 299, 500, 499, 700, 701, 902, 901
213, 299, 300, 501, 500, 701, 702, 903, 902
214, 300, 301, 502, 501, 702, 703, 904, 903
215, 301, 302, 503, 502, 703, 704, 905, 904
216, 302, 303, 504, 503, 704, 705, 906, 905
217, 303, 304, 505, 504, 705, 706, 907, 906
218, 304, 305, 506, 505, 706, 707, 908, 907
219, 305, 306, 507, 506, 707, 708, 909, 908
220, 306, 307, 508, 507, 708, 709, 910, 909
221, 307, 308, 509, 508, 709, 710, 911, 910
222, 308, 309, 510, 509, 710, 711, 912, 911
223, 309, 310, 511, 510, 711, 712, 913, 912
224, 310, 311, 512, 511, 712, 713, 914, 913
225, 311, 312, 513, 512, 713, 714, 915, 914
226, 312, 313, 514, 513, 714, 715, 916, 915
227, 313, 314, 515, 514, 715, 716, 917, 916
228, 314, 315, 516, 515, 716, 717, 918, 917
229, 315, 316, 517, 516, 717, 718, 919, 918
230, 316, 317, 518, 517, 718, 719, 920, 919
231, 317, 318, 519, 518, 719, 720, 921, 920
232, 318, 319, 520, 519, 720, 721, 922, 921
233, 319, 320, 521, 520, 721, 722, 923, 922
234, 320, 321, 522, 521, 722, 723, 924, 923
235, 321, 322, 523, 522, 723, 724, 925, 924
236, 322, 323, 524, 523, 724, 725, 926, 925
237, 323, 324, 525, 524, 725, 726, 927, 926
238, 324, 325, 526, 525, 726, 727, 928, 927
239, 325, 326, 527, 526, 727, 728, 929, 928
240, 326, 327, 528, 527, 728, 729, 930, 929
*NSET, NSET=CLAMP
1, 2, 3, 19, 20, 21, 22, 23, 24, 40, 41, 42
43, 44, 45, 61, 62, 63, 64, 65, 66, 82, 83, 84
85, 86, 87, 103, 104, 105, 106, 107, 108, 124, 125, 126
*NSET, NSET=SUPA
86, 107
*NSET, NSET=SUPB
104, 125
*NSET, NSET=NTOP
85, 86, 87, 88, 89, 90, 91, 92, 93, 94, 95, 96
97, 98, 99, 100, 101, 102, 103, 104, 105, 106, 107, 108
109, 110, 111, 112, 113, 114, 115, 116, 117, 118, 119, 120
121, 122, 123, 124, 125, 126
*ELSET, ELSET=ETOPL
21, 22, 23, 24, 25, 26, 27, 28, 29, 30, 31, 32
33, 34, 35, 36, 37, 38, 39, 40
*SURFACE, NAME=SSLAVE, TYPE=ELEMENT
ETOPL, S2
*SURFACE, NAME=SMASTER, TYPE=ELEMENT
41, S1
42, S1
43, S1
44, S1
45, S1
46, S1
47, S1
48, S1
49, S1
50, S1
51, S1
52, S1
53, S1
54, S1
55, S1
56, S1
57, S1
58, S1
59, S1
60, S1
61, S1
62, S1
63, S1
64, S1
65, S1
66, S1
67, S1
68, S1
69, S1
70, S1
71, S1
72, S1
73, S1
74, S1
75, S1
76, S1
77, S1
78, S1
79, S1
80, S1
81, S1
82, S1
83, S1
84, S1
85, S1
86, S1
87, S1
88, S1
89, S1
90, S1
91, S1
92, S1
93, S1
94, S1
95, S1
96, S1
97, S1
98, S1
99, S1
100, S1
101, S1
102, S1
103, S1
104, S1
105, S1
106, S1
107, S1
108, S1
109, S1
110, S1
111, S1
112, S1
113, S1
114, S1
115, S1
116, S1
117, S1
118, S1
119, S1
120, S1
121, S1
122, S1
123, S1
124, S1
125, S1
126, S1
127, S1
128, S1
129, S1
130, S1
131, S1
132, S1
133, S1
134, S1
135, S1
136, S1
137, S1
138, S1
139, S1
140, S1
141, S1
142, S1
143, S1
144, S1
145, S1
146, S1
147, S1
148, S1
149, S1
150, S1
151, S1
152, S1
153, S1
154, S1
155, S1
156, S1
157, S1
158, S1
159, S1
160, S1
161, S1
162, S1
163, S1
164, S1
165, S1
166, S1
167, S1
168, S1
169, S1
170, S1
171, S1
172, S1
173, S1
174, S1
175, S1
176, S1
177, S1
178, S1
179, S1
180, S1
181, S1
182, S1
183, S1
184, S1
185, S1
186, S1
187, S1
188, S1
189, S1
190, S1
191, S1
192, S1
193, S1
194, S1
195, S1
196, S1
197, S1
198, S1
199, S1
200, S1
201, S1
202, S1
203, S1
204, S1
205, S1
206, S1
207, S1
208, S1
209, S1
210, S1
211, S1
212, S1
213, S1
214, S1
215, S1
216, S1
217, S1
218, S1
219, S1
220, S1
221, S1
222, S1
223, S1
224, S1
225, S1
226, S1
227, S1
228, S1
229, S1
230, S1
231, S1
232, S1
233, S1
234, S1
235, S1
236, S1
237, S1
238, S1
239, S1
240, S1
*MATERIAL, NAME=AL
*ELASTIC
70000, 0.33
*PLASTIC
100, 0
102.005739, 0.001
103.986239, 0.002
105.94186, 0.003
107.872956, 0.004
109.779878, 0.005
111.662972, 0.006
113.522577, 0.007
115.359028, 0.008
117.172657, 0.009
118.963788, 0.01
120.732743, 0.011
122.479839, 0.012
124.205387, 0.013
125.909695, 0.014
127.593067, 0.015
129.255801, 0.016
130.898192, 0.017
132.52053, 0.018
134.123101, 0.019
135.706188, 0.02
137.270069, 0.021
138.815018, 0.022
140.341305, 0.023
141.849196, 0.024
143.338954, 0.025
144.810839, 0.026
146.265105, 0.027
147.702003, 0.028
149.121781, 0.029
150.524685, 0.03
151.910955, 0.031
153.280827, 0.032
154.634537, 0.033
155.972315, 0.034
157.294389, 0.035
158.600982, 0.036
159.892316, 0.037
161.168608, 0.038
162.430073, 0.039
163.676923, 0.04
164.909367, 0.041
166.127609, 0.042
167.331854, 0.043
168.5223, 0.044
169.699144, 0.045
170.862581, 0.046
172.012803, 0.047
173.149997, 0.048
174.27435, 0.049
175.386045, 0.05
176.485262, 0.051
177.57218, 0.052
178.646975, 0.053
179.70982, 0.054
180.760884, 0.055
181.800336, 0.056
182.828343, 0.057
183.845067, 0.058
184.850669, 0.059
185.845308, 0.06
186.829141, 0.061
187.802322, 0.062
188.765003, 0.063
189.717334, 0.064
190.659462, 0.065
191.591533, 0.066
192.513692, 0.067
193.426078, 0.068
194.328833, 0.069
195.222092, 0.07
196.105993, 0.071
196.980668, 0.072
197.846249, 0.073
198.702866, 0.074
199.550646, 0.075
200.389717, 0.076
201.220202, 0.077
202.042224, 0.078
202.855904, 0.079
203.661361, 0.08
204.458711, 0.081
205.248072, 0.082
206.029556, 0.083
206.803277, 0.084
207.569345, 0.085
208.32787, 0.086
209.078958, 0.087
209.822717, 0.088
210.559251, 0.089
211.288663, 0.09
212.011054, 0.091
212.726526, 0.092
213.435176, 0.093
214.137102, 0.094
214.8324, 0.095
215.521165, 0.096
216.20349, 0.097
216.879466, 0.098
217.549185, 0.099
218.212736, 0.1
218.870207, 0.101
219.521684, 0.102
220.167254, 0.103
220.807, 0.104
221.441005, 0.105
222.069352, 0.106
222.692122, 0.107
223.309393, 0.108
223.921245, 0.109
224.527755, 0.11
225.128999, 0.111
225.725052, 0.112
226.315989, 0.113
226.901882, 0.114
227.482803, 0.115
228.058823, 0.116
228.630013, 0.117
229.196441, 0.118
229.758176, 0.119
230.315283, 0.12
230.86783, 0.121
231.415882, 0.122
231.959501, 0.123
232.498753, 0.124
233.033699, 0.125
233.5644, 0.126
234.090918, 0.127
234.613311, 0.128
235.13164, 0.129
235.645961, 0.13
236.156332, 0.131
236.66281, 0.132
237.16545, 0.133
237.664306, 0.134
238.159434, 0.135
238.650885, 0.136
239.138713, 0.137
239.622969, 0.138
240.103704, 0.139
240.580969, 0.14
241.054813, 0.141
241.525284, 0.142
241.992432, 0.143
242.456303, 0.144
242.916944, 0.145
243.374402, 0.146
243.828721, 0.147
244.279947, 0.148
244.728123, 0.149
245.173294, 0.15
245.615502, 0.151
246.054789, 0.152
246.491198, 0.153
246.924768, 0.154
247.355542, 0.155
247.783558, 0.156
248.208856, 0.157
248.631475, 0.158
249.051453, 0.159
249.468828, 0.16
249.883636, 0.161
250.295915, 0.162
250.705701, 0.163
251.113029, 0.164
251.517935, 0.165
251.920452, 0.166
252.320616, 0.167
252.718459, 0.168
253.114014, 0.169
253.507316, 0.17
253.898394, 0.171
254.287282, 0.172
254.674011, 0.173
255.058611, 0.174
255.441112, 0.175
255.821546, 0.176
256.19994, 0.177
256.576325, 0.178
256.95073, 0.179
257.323181, 0.18
257.693707, 0.181
258.062337, 0.182
258.429096, 0.183
258.794011, 0.184
259.157109, 0.185
259.518416, 0.186
259.877957, 0.187
260.235758, 0.188
260.591843, 0.189
260.946237, 0.19
261.298963, 0.191
261.650047, 0.192
261.999511, 0.193
262.347378, 0.194
262.693671, 0.195
263.038413, 0.196
263.381625, 0.197
263.72333, 0.198
264.063549, 0.199
264.402304, 0.2
264.739614, 0.201
265.075502, 0.202
265.409986, 0.203
265.743088, 0.204
266.074827, 0.205
266.405222, 0.206
266.734292, 0.207
267.062057, 0.208
267.388535, 0.209
267.713744, 0.21
268.037703, 0.211
268.36043, 0.212
268.681941, 0.213
269.002255, 0.214
269.321388, 0.215
269.639358, 0.216
269.95618, 0.217
270.271872, 0.218
270.586449, 0.219
270.899927, 0.22
271.212323, 0.221
271.523651, 0.222
271.833926, 0.223
272.143164, 0.224
272.45138, 0.225
272.758588, 0.226
273.064803, 0.227
273.370038, 0.228
273.674308, 0.229
273.977626, 0.23
274.280007, 0.231
274.581462, 0.232
274.882007, 0.233
275.181653, 0.234
275.480414, 0.235
275.778301, 0.236
276.075328, 0.237
276.371508, 0.238
276.666851, 0.239
276.961369, 0.24
277.255076, 0.241
277.547982, 0.242
277.840098, 0.243
278.131437, 0.244
278.422008, 0.245
278.711824, 0.246
279.000894, 0.247
279.28923, 0.248
279.576841, 0.249
279.863739, 0.25
280.149933, 0.251
280.435434, 0.252
280.720251, 0.253
281.004395, 0.254
281.287874, 0.255
281.570698, 0.256
281.852877, 0.257
282.13442, 0.258
282.415335, 0.259
282.695633, 0.26
282.975321, 0.261
283.254408, 0.262
283.532904, 0.263
283.810815, 0.264
284.088152, 0.265
284.364921, 0.266
284.641132, 0.267
284.916791, 0.268
285.191907, 0.269
285.466488, 0.27
285.740541, 0.271
286.014074, 0.272
286.287094, 0.273
286.559609, 0.274
286.831626, 0.275
287.103151, 0.276
287.374192, 0.277
287.644756, 0.278
287.91485, 0.279
288.18448, 0.28
288.453653, 0.281
288.722375, 0.282
288.990653, 0.283
289.258493, 0.284
289.525902, 0.285
289.792886, 0.286
290.05945, 0.287
290.325601, 0.288
290.591345, 0.289
290.856687, 0.29
291.121633, 0.291
291.386189, 0.292
291.65036, 0.293
291.914152, 0.294
292.17757, 0.295
292.44062, 0.296
292.703307, 0.297
292.965636, 0.298
293.227612, 0.299
293.48924, 0.3
296.087451, 0.31
298.655918, 0.32
301.198624, 0.33
303.71902, 0.34
306.220093, 0.35
308.70443, 0.36
311.174273, 0.37
313.631564, 0.38
316.077982, 0.39
318.514984, 0.4
320.943831, 0.41
323.365615, 0.42
325.781282, 0.43
328.191651, 0.44
330.597432, 0.45
332.999239, 0.46
335.397604, 0.47
337.792988, 0.48
340.18579, 0.49
342.576356, 0.5
344.964986, 0.51
347.351939, 0.52
349.737439, 0.53
352.121681, 0.54
354.504834, 0.55
356.887043, 0.56
359.268435, 0.57
361.649118, 0.58
364.029189, 0.59
366.408729, 0.6
368.787809, 0.61
371.166491, 0.62
373.544827, 0.63
375.922866, 0.64
378.300645, 0.65
380.6782, 0.66
383.055561, 0.67
385.432754, 0.68
387.809802, 0.69
390.186723, 0.7
392.563536, 0.71
394.940253, 0.72
397.316889, 0.73
399.693454, 0.74
402.069957, 0.75
404.446407, 0.76
406.822811, 0.77
409.199176, 0.78
411.575505, 0.79
413.951805, 0.8
416.328079, 0.81
418.70433, 0.82
421.080562, 0.83
423.456777, 0.84
425.832977, 0.85
428.209165, 0.86
430.585342, 0.87
432.961509, 0.88
435.337668, 0.89
437.71382, 0.9
440.089966, 0.91
442.466107, 0.92
444.842243, 0.93
447.218375, 0.94
449.594503, 0.95
451.970629, 0.96
454.346751, 0.97
456.722872, 0.98
459.098991, 0.99
461.475108, 1
463.851223, 1.01
466.227337, 1.02
468.603451, 1.03
470.979563, 1.04
473.355674, 1.05
475.731785, 1.06
478.107895, 1.07
480.484004, 1.08
482.860113, 1.09
485.236222, 1.1
487.61233, 1.11
489.988438, 1.12
492.364546, 1.13
494.740654, 1.14
497.116761, 1.15
499.492868, 1.16
501.868975, 1.17
504.245082, 1.18
506.621189, 1.19
508.997295, 1.2
511.373402, 1.21
513.749508, 1.22
516.125615, 1.23
518.501721, 1.24
520.877828, 1.25
523.253934, 1.26
525.63004, 1.27
528.006146, 1.28
530.382253, 1.29
532.758359, 1.3
535.134465, 1.31
537.510571, 1.32
539.886677, 1.33
542.262783, 1.34
544.63889, 1.35
547.014996, 1.36
549.391102, 1.37
551.767208, 1.38
554.143314, 1.39
556.51942, 1.4
558.895526, 1.41
561.271632, 1.42
563.647738, 1.43
566.023844, 1.44
568.399951, 1.45
570.776057, 1.46
573.152163, 1.47
575.528269, 1.48
577.904375, 1.49
580.280481, 1.5
582.656587, 1.51
585.032693, 1.52
587.408799, 1.53
589.784905, 1.54
592.161011, 1.55
594.537117, 1.56
596.913223, 1.57
599.289329, 1.58
601.665435, 1.59
604.041541, 1.6
606.417647, 1.61
608.793754, 1.62
611.16986, 1.63
613.545966, 1.64
615.922072, 1.65
618.298178, 1.66
620.674284, 1.67
623.05039, 1.68
625.426496, 1.69
627.802602, 1.7
630.178708, 1.71
632.554814, 1.72
634.93092, 1.73
637.307026, 1.74
639.683132, 1.75
642.059238, 1.76
644.435344, 1.77
646.81145, 1.78
649.187556, 1.79
651.563662, 1.8
653.939769, 1.81
656.315875, 1.82
658.691981, 1.83
661.068087, 1.84
663.444193, 1.85
665.820299, 1.86
668.196405, 1.87
670.572511, 1.88
672.948617, 1.89
675.324723, 1.9
677.700829, 1.91
680.076935, 1.92
682.453041, 1.93
684.829147, 1.94
687.205253, 1.95
689.581359, 1.96
691.957465, 1.97
694.333571, 1.98
696.709677, 1.99
699.085784, 2
701.46189, 2.01
703.837996, 2.02
706.214102, 2.03
708.590208, 2.04
710.966314, 2.05
713.34242, 2.06
715.718526, 2.07
718.094632, 2.08
720.470738, 2.09
722.846844, 2.1
725.22295, 2.11
727.599056, 2.12
729.975162, 2.13
732.351268, 2.14
734.727374, 2.15
737.10348, 2.16
739.479586, 2.17
741.855693, 2.18
744.231799, 2.19
746.607905, 2.2
748.984011, 2.21
751.360117, 2.22
753.736223, 2.23
756.112329, 2.24
758.488435, 2.25
760.864541, 2.26
763.240647, 2.27
765.616753, 2.28
767.992859, 2.29
770.368965, 2.3
772.745071, 2.31
775.121177, 2.32
777.497283, 2.33
779.873389, 2.34
782.249495, 2.35
784.625601, 2.36
787.001708, 2.37
789.377814, 2.38
791.75392, 2.39
794.130026, 2.4
796.506132, 2.41
798.882238, 2.42
801.258344, 2.43
803.63445, 2.44
806.010556, 2.45
808.386662, 2.46
810.762768, 2.47
813.138874, 2.48
815.51498, 2.49
817.891086, 2.5
820.267192, 2.51
822.643298, 2.52
825.019404, 2.53
827.39551, 2.54
829.771616, 2.55
832.147723, 2.56
834.523829, 2.57
836.899935, 2.58
839.276041, 2.59
841.652147, 2.6
844.028253, 2.61
846.404359, 2.62
848.780465, 2.63
851.156571, 2.64
853.532677, 2.65
855.908783, 2.66
858.284889, 2.67
860.660995, 2.68
863.037101, 2.69
865.413207, 2.7
867.789313, 2.71
870.165419, 2.72
872.541525, 2.73
874.917631, 2.74
877.293738, 2.75
879.669844, 2.76
882.04595, 2.77
884.422056, 2.78
886.798162, 2.79
889.174268, 2.8
891.550374, 2.81
893.92648, 2.82
896.302586, 2.83
898.678692, 2.84
901.054798, 2.85
903.430904, 2.86
905.80701, 2.87
908.183116, 2.88
910.559222, 2.89
912.935328, 2.9
915.311434, 2.91
917.68754, 2.92
920.063646, 2.93
922.439753, 2.94
924.815859, 2.95
927.191965, 2.96
929.568071, 2.97
931.944177, 2.98
934.320283, 2.99
936.696389, 3

*MATERIAL, NAME=STEEL
*ELASTIC
210000., 0.3
*SOLID SECTION, ELSET=SHEET, MATERIAL=AL
*SOLID SECTION, ELSET=TOOL, MATERIAL=STEEL
*SURFACE INTERACTION, NAME=SI
*SURFACE BEHAVIOR, PRESSURE-OVERCLOSURE=LINEAR
350000, 0.01
*FRICTION
0.1, 350000
*CONTACT PAIR, INTERACTION=SI, TYPE=NODE TO SURFACE
SSLAVE, SMASTER
*STEP, NLGEOM, INC=100000
*STATIC
0.025, 1.0, 2.5e-06, 0.025
*BOUNDARY
NSHEET, 2, 2, 0.0
*BOUNDARY
CLAMP, 1, 1, 0.0
CLAMP, 3, 3, 0.0
*BOUNDARY
PUNCH, 1, 1, 0
PUNCH, 2, 2, 0
PUNCH, 3, 3, -4
*NODE PRINT, NSET=PUNCH, TOTALS=ONLY
RF
*NODE PRINT, NSET=NTOP
U
*EL PRINT, ELSET=SHEET
PEEQ
*END STEP
*STEP, NLGEOM, INC=100000
*STATIC
0.02, 1.0, 2e-06, 0.02
*BOUNDARY
NSHEET, 2, 2, 0.0
*BOUNDARY
CLAMP, 1, 1, 0.0
CLAMP, 3, 3, 0.0
*BOUNDARY
PUNCH, 1, 1, 0
PUNCH, 2, 2, 0
PUNCH, 3, 3, 1
*NODE PRINT, NSET=PUNCH, TOTALS=ONLY
RF
*NODE PRINT, NSET=NTOP
U
*EL PRINT, ELSET=SHEET
PEEQ
*END STEP
*STEP, NLGEOM, INC=100000
*STATIC
0.05, 1.0, 1e-6, 0.05
*BOUNDARY, OP=NEW
NSHEET, 2, 2, 0.0
PUNCH, 1, 1, 0
PUNCH, 2, 2, 0
PUNCH, 3, 3, 1
SUPA, 1, 1, 0.0
SUPA, 3, 3, 0.0
SUPB, 3, 3, 0.0
*NODE PRINT, NSET=PUNCH, TOTALS=ONLY
RF
*NODE PRINT, NSET=NTOP
U
*EL PRINT, ELSET=SHEET
PEEQ
*END STEP
