*HEADING
punch cross-check
*NODE, NSET=NSHEET
1, -20, 0, -1
2, -19, 0, -1
3, -18, 0, -1
4, -17, 0, -1
5, -16, 0, -1
6, -15, 0, -1
7, -14, 0, -1
8, -13, 0, -1
9, -12, 0, -1
10, -11, 0, -1
11, -10, 0, -1
12, -9, 0, -1
13, -8, 0, -1
14, -7, 0, -1
15, -6, 0, -1
16, -5, 0, -1
17, -4, 0, -1
18, -3, 0, -1
19, -2, 0, -1
20, -1, 0, -1
21, 0, 0, -1
22, 1, 0, -1
23, 2, 0, -1
24, 3, 0, -1
25, 4, 0, -1
26, 5, 0, -1
27, 6, 0, -1
28, 7, 0, -1
29, 8, 0, -1
30, 9, 0, -1
31, 10, 0, -1
32, 11, 0, -1
33, 12, 0, -1
34, 13, 0, -1
35, 14, 0, -1
36, 15, 0, -1
37, 16, 0, -1
38, 17, 0, -1
39, 18, 0, -1
40, 19, 0, -1
41, 20, 0, -1
42, -20, 1, -1
43, -19, 1, -1
44, -18, 1, -1
45, -17, 1, -1
46, -16, 1, -1
47, -15, 1, -1
48, -14, 1, -1
49, -13, 1, -1
50, -12, 1, -1
51, -11, 1, -1
52, -10, 1, -1
53, -9, 1, -1
54, -8, 1, -1
55, -7, 1, -1
56, -6, 1, -1
57, -5, 1, -1
58, -4, 1, -1
59, -3, 1, -1
60, -2, 1, -1
61, -1, 1, -1
62, 0, 1, -1
63, 1, 1, -1
64, 2, 1, -1
65, 3, 1, -1
66, 4, 1, -1
67, 5, 1, -1
68, 6, 1, -1
69, 7, 1, -1
70, 8, 1, -1
71, 9, 1, -1
72, 10, 1, -1
73, 11, 1, -1
74, 12, 1, -1
75, 13, 1, -1
76, 14, 1, -1
77, 15, 1, -1
78, 16, 1, -1
79, 17, 1, -1
80, 18, 1, -1
81, 19, 1, -1
82, 20, 1, -1
83, -20, 0, -0.75
84, -19, 0, -0.75
85, -18, 0, -0.75
86, -17, 0, -0.75
87, -16, 0, -0.75
88, -15, 0, -0.75
89, -14, 0, -0.75
90, -13, 0, -0.75
91, -12, 0, -0.75
92, -11, 0, -0.75
93, -10, 0, -0.75
94, -9, 0, -0.75
95, -8, 0, -0.75
96, -7, 0, -0.75
97, -6, 0, -0.75
98, -5, 0, -0.75
99, -4, 0, -0.75
100, -3, 0, -0.75
101, -2, 0, -0.75
102, -1, 0, -0.75
103, 0, 0, -0.75
104, 1, 0, -0.75
105, 2, 0, -0.75
106, 3, 0, -0.75
107, 4, 0, -0.75
108, 5, 0, -0.75
109, 6, 0, -0.75
110, 7, 0, -0.75
111, 8, 0, -0.75
112, 9, 0, -0.75
113, 10, 0, -0.75
114, 11, 0, -0.75
115, 12, 0, -0.75
116, 13, 0, -0.75
117, 14, 0, -0.75
118, 15, 0, -0.75
119, 16, 0, -0.75
120, 17, 0, -0.75
121, 18, 0, -0.75
122, 19, 0, -0.75
123, 20, 0, -0.75
124, -20, 1, -0.75
125, -19, 1, -0.75
126, -18, 1, -0.75
127, -17, 1, -0.75
128, -16, 1, -0.75
129, -15, 1, -0.75
130, -14, 1, -0.75
131, -13, 1, -0.75
132, -12, 1, -0.75
133, -11, 1, -0.75
134, -10, 1, -0.75
135, -9, 1, -0.75
136, -8, 1, -0.75
137, -7, 1, -0.75
138, -6, 1, -0.75
139, -5, 1, -0.75
140, -4, 1, -0.75
141, -3, 1, -0.75
142, -2, 1, -0.75
143, -1, 1, -0.75
144, 0, 1, -0.75
145, 1, 1, -0.75
146, 2, 1, -0.75
147, 3, 1, -0.75
148, 4, 1, -0.75
149, 5, 1, -0.75
150, 6, 1, -0.75
151, 7, 1, -0.75
152, 8, 1, -0.75
153, 9, 1, -0.75
154, 10, 1, -0.75
155, 11, 1, -0.75
156, 12, 1, -0.75
157, 13, 1, -0.75
158, 14, 1, -0.75
159, 15, 1, -0.75
160, 16, 1, -0.75
161, 17, 1, -0.75
162, 18, 1, -0.75
163, 19, 1, -0.75
164, 20, 1, -0.75
165, -20, 0, -0.5
166, -19, 0, -0.5
167, -18, 0, -0.5
168, -17, 0, -0.5
169, -16, 0, -0.5
170, -15, 0, -0.5
171, -14, 0, -0.5
172, -13, 0, -0.5
173, -12, 0, -0.5
174, -11, 0, -0.5
175, -10, 0, -0.5
176, -9, 0, -0.5
177, -8, 0, -0.5
178, -7, 0, -0.5
179, -6, 0, -0.5
180, -5, 0, -0.5
181, -4, 0, -0.5
182, -3, 0, -0.5
183, -2, 0, -0.5
184, -1, 0, -0.5
185, 0, 0, -0.5
186, 1, 0, -0.5
187, 2, 0, -0.5
188, 3, 0, -0.5
189, 4, 0, -0.5
190, 5, 0, -0.5
191, 6, 0, -0.5
192, 7, 0, -0.5
193, 8, 0, -0.5
194, 9, 0, -0.5
195, 10, 0, -0.5
196, 11, 0, -0.5
197, 12, 0, -0.5
198, 13, 0, -0.5
199, 14, 0, -0.5
200, 15, 0, -0.5
201, 16, 0, -0.5
202, 17, 0, -0.5
203, 18, 0, -0.5
204, 19, 0, -0.5
205, 20, 0, -0.5
206, -20, 1, -0.5
207, -19, 1, -0.5
208, -18, 1, -0.5
209, -17, 1, -0.5
210, -16, 1, -0.5
211, -15, 1, -0.5
212, -14, 1, -0.5
213, -13, 1, -0.5
214, -12, 1, -0.5
215, -11, 1, -0.5
216, -10, 1, -0.5
217, -9, 1, -0.5
218, -8, 1, -0.5
219, -7, 1, -0.5
220, -6, 1, -0.5
221, -5, 1, -0.5
222, -4, 1, -0.5
223, -3, 1, -0.5
224, -2, 1, -0.5
225, -1, 1, -0.5
226, 0, 1, -0.5
227, 1, 1, -0.5
228, 2, 1, -0.5
229, 3, 1, -0.5
230, 4, 1, -0.5
231, 5, 1, -0.5
232, 6, 1, -0.5
233, 7, 1, -0.5
234, 8, 1, -0.5
235, 9, 1, -0.5
236, 10, 1, -0.5
237, 11, 1, -0.5
238, 12, 1, -0.5
239, 13, 1, -0.5
240, 14, 1, -0.5
241, 15, 1, -0.5
242, 16, 1, -0.5
243, 17, 1, -0.5
244, 18, 1, -0.5
245, 19, 1, -0.5
246, 20, 1, -0.5
247, -20, 0, -0.25
248, -19, 0, -0.25
249, -18, 0, -0.25
250, -17, 0, -0.25
251, -16, 0, -0.25
252, -15, 0, -0.25
253, -14, 0, -0.25
254, -13, 0, -0.25
255, -12, 0, -0.25
256, -11, 0, -0.25
257, -10, 0, -0.25
258, -9, 0, -0.25
259, -8, 0, -0.25
260, -7, 0, -0.25
261, -6, 0, -0.25
262, -5, 0, -0.25
263, -4, 0, -0.25
264, -3, 0, -0.25
265, -2, 0, -0.25
266, -1, 0, -0.25
267, 0, 0, -0.25
268, 1, 0, -0.25
269, 2, 0, -0.25
270, 3, 0, -0.25
271, 4, 0, -0.25
272, 5, 0, -0.25
273, 6, 0, -0.25
274, 7, 0, -0.25
275, 8, 0, -0.25
276, 9, 0, -0.25
277, 10, 0, -0.25
278, 11, 0, -0.25
279, 12, 0, -0.25
280, 13, 0, -0.25
281, 14, 0, -0.25
282, 15, 0, -0.25
283, 16, 0, -0.25
284, 17, 0, -0.25
285, 18, 0, -0.25
286, 19, 0, -0.25
287, 20, 0, -0.25
288, -20, 1, -0.25
289, -19, 1, -0.25
290, -18, 1, -0.25
291, -17, 1, -0.25
292, -16, 1, -0.25
293, -15, 1, -0.25
294, -14, 1, -0.25
295, -13, 1, -0.25
296, -12, 1, -0.25
297, -11, 1, -0.25
298, -10, 1, -0.25
299, -9, 1, -0.25
300, -8, 1, -0.25
301, -7, 1, -0.25
302, -6, 1, -0.25
303, -5, 1, -0.25
304, -4, 1, -0.25
305, -3, 1, -0.25
306, -2, 1, -0.25
307, -1, 1, -0.25
308, 0, 1, -0.25
309, 1, 1, -0.25
310, 2, 1, -0.25
311, 3, 1, -0.25
312, 4, 1, -0.25
313, 5, 1, -0.25
314, 6, 1, -0.25
315, 7, 1, -0.25
316, 8, 1, -0.25
317, 9, 1, -0.25
318, 10, 1, -0.25
319, 11, 1, -0.25
320, 12, 1, -0.25
321, 13, 1, -0.25
322, 14, 1, -0.25
323, 15, 1, -0.25
324, 16, 1, -0.25
325, 17, 1, -0.25
326, 18, 1, -0.25
327, 19, 1, -0.25
328, 20, 1, -0.25
329, -20, 0, 0
330, -19, 0, 0
331, -18, 0, 0
332, -17, 0, 0
333, -16, 0, 0
334, -15, 0, 0
335, -14, 0, 0
336, -13, 0, 0
337, -12, 0, 0
338, -11, 0, 0
339, -10, 0, 0
340, -9, 0, 0
341, -8, 0, 0
342, -7, 0, 0
343, -6, 0, 0
344, -5, 0, 0
345, -4, 0, 0
346, -3, 0, 0
347, -2, 0, 0
348, -1, 0, 0
349, 0, 0, 0
350, 1, 0, 0
351, 2, 0, 0
352, 3, 0, 0
353, 4, 0, 0
354, 5, 0, 0
355, 6, 0, 0
356, 7, 0, 0
357, 8, 0, 0
358, 9, 0, 0
359, 10, 0, 0
360, 11, 0, 0
361, 12, 0, 0
362, 13, 0, 0
363, 14, 0, 0
364, 15, 0, 0
365, 16, 0, 0
366, 17, 0, 0
367, 18, 0, 0
368, 19, 0, 0
369, 20, 0, 0
370, -20, 1, 0
371, -19, 1, 0
372, -18, 1, 0
373, -17, 1, 0
374, -16, 1, 0
375, -15, 1, 0
376, -14, 1, 0
377, -13, 1, 0
378, -12, 1, 0
379, -11, 1, 0
380, -10, 1, 0
381, -9, 1, 0
382, -8, 1, 0
383, -7, 1, 0
384, -6, 1, 0
385, -5, 1, 0
386, -4, 1, 0
387, -3, 1, 0
388, -2, 1, 0
389, -1, 1, 0
390, 0, 1, 0
391, 1, 1, 0
392, 2, 1, 0
393, 3, 1, 0
394, 4, 1, 0
395, 5, 1, 0
396, 6, 1, 0
397, 7, 1, 0
398, 8, 1, 0
399, 9, 1, 0
400, 10, 1, 0
401, 11, 1, 0
402, 12, 1, 0
403, 13, 1, 0
404, 14, 1, 0
405, 15, 1, 0
406, 16, 1, 0
407, 17, 1, 0
408, 18, 1, 0
409, 19, 1, 0
410, 20, 1, 0
*NODE, NSET=PUNCH
411, -3.93923101205, -1, 4.69459271067
412, -3.95075336238, -1, 4.62573786016
413, -3.96107227497, -1, 4.55669240384
414, -3.97018460657, -1, 4.48747737362
415, -3.97808758147, -1, 4.41811385307
416, -3.98477879237, -1, 4.34862297099
417, -3.99025620104, -1, 4.27902589498
418, -3.99451813902, -1, 4.20934382497
419, -3.99756330808, -1, 4.13959798681
420, -3.99939078063, -1, 4.06980962575
421, -4, -1, 4
422, -3.99939078063, -1, 3.93019037425
423, -3.99756330808, -1, 3.86040201319
424, -3.99451813902, -1, 3.79065617503
425, -3.99025620104, -1, 3.72097410502
426, -3.98477879237, -1, 3.65137702901
427, -3.97808758147, -1, 3.58188614693
428, -3.97018460657, -1, 3.51252262638
429, -3.96107227497, -1, 3.44330759616
430, -3.95075336238, -1, 3.37426213984
431, -3.93923101205, -1, 3.30540728933
432, -3.92650873379, -1, 3.23676401849
433, -3.91259040294, -1, 3.16835323673
434, -3.89748025914, -1, 3.10019578262
435, -3.8811829051, -1, 3.0323124176
436, -3.86370330516, -1, 2.96472381959
437, -3.84504678375, -1, 2.89745057673
438, -3.82521902385, -1, 2.83051318111
439, -3.80422606518, -1, 2.7639320225
440, -3.7820743024, -1, 2.69772738217
441, -3.75877048314, -1, 2.6319194267
442, -3.73432170599, -1, 2.56652820182
443, -3.70873541827, -1, 2.50157362634
444, -3.68201941381, -1, 2.43707548604
445, -3.65418183057, -1, 2.3730534277
446, -3.62523114815, -1, 2.30952695304
447, -3.5951761852, -1, 2.24651541284
448, -3.56402609675, -1, 2.18403800104
449, -3.53179037144, -1, 2.12211374886
450, -3.49847882856, -1, 2.06076151901
451, -3.46410161514, -1, 2
452, -3.42866920281, -1, 1.93984770036
453, -3.39219238463, -1, 1.88032294307
454, -3.35468227178, -1, 1.82144385994
455, -3.31615029022, -1, 1.76322838612
456, -3.27660817716, -1, 1.7056942546
457, -3.2360679775, -1, 1.64885899083
458, -3.19454204019, -1, 1.59273990739
459, -3.15204301443, -1, 1.5373540987
460, -3.10858384583, -1, 1.4827184358
461, -3.06417777248, -1, 1.42884956125
462, -3.01883832089, -1, 1.37576388404
463, -2.97257930191, -1, 1.32347757456
464, -2.92541480648, -1, 1.27200655975
465, -2.87735920135, -1, 1.22136651816
466, -2.82842712475, -1, 1.17157287525
467, -2.77863348184, -1, 1.12264079865
468, -2.72799344025, -1, 1.07458519352
469, -2.67652242544, -1, 1.02742069809
470, -2.62423611596, -1, 0.981161679109
471, -2.57115043875, -1, 0.935822227524
472, -2.5172815642, -1, 0.891416154172
473, -2.4626459013, -1, 0.847956985573
474, -2.40726009261, -1, 0.805457959811
475, -2.35114100917, -1, 0.7639320225
476, -2.2943057454, -1, 0.723391822844
477, -2.23677161388, -1, 0.68384970978
478, -2.17855614006, -1, 0.645317728218
479, -2.11967705693, -1, 0.607807615374
480, -2.06015229964, -1, 0.571330797192
481, -2, -1, 0.535898384862
482, -1.93923848099, -1, 0.501521171442
483, -1.87788625114, -1, 0.468209628564
484, -1.81596199896, -1, 0.435973903247
485, -1.75348458716, -1, 0.404823814803
486, -1.69047304696, -1, 0.374768851853
487, -1.6269465723, -1, 0.34581816943
488, -1.56292451396, -1, 0.31798058619
489, -1.49842637366, -1, 0.291264581733
490, -1.43347179818, -1, 0.265678294011
491, -1.3680805733, -1, 0.241229516856
492, -1.30227261783, -1, 0.217925697603
493, -1.2360679775, -1, 0.195773934819
494, -1.16948681889, -1, 0.174780976148
495, -1.10254942327, -1, 0.154953216247
496, -1.03527618041, -1, 0.136296694844
497, -0.967687582399, -1, 0.118817094896
498, -0.899804217375, -1, 0.102519740859
499, -0.831646763271, -1, 0.0874095970648
500, -0.763235981506, -1, 0.0734912662093
501, -0.694592710668, -1, 0.0607689879512
502, -0.625737860161, -1, 0.0492466376194
503, -0.55669240384, -1, 0.0389277250337
504, -0.487477373621, -1, 0.0298153934347
505, -0.418113853071, -1, 0.0219124185269
506, -0.348622970991, -1, 0.015221207633
507, -0.279025894977, -1, 0.0097437989607
508, -0.209343824972, -1, 0.0054818609817
509, -0.13959798681, -1, 0.00243669192362
510, -0.0698096257491, -1, 0.000609219374435
511, 0, -1, 0
512, 0.0698096257491, -1, 0.000609219374435
513, 0.13959798681, -1, 0.00243669192362
514, 0.209343824972, -1, 0.0054818609817
515, 0.279025894977, -1, 0.0097437989607
516, 0.348622970991, -1, 0.015221207633
517, 0.418113853071, -1, 0.0219124185269
518, 0.487477373621, -1, 0.0298153934347
519, 0.55669240384, -1, 0.0389277250337
520, 0.625737860161, -1, 0.0492466376194
521, 0.694592710668, -1, 0.0607689879512
522, 0.763235981506, -1, 0.0734912662093
523, 0.831646763271, -1, 0.0874095970648
524, 0.899804217375, -1, 0.102519740859
525, 0.967687582399, -1, 0.118817094896
526, 1.03527618041, -1, 0.136296694844
527, 1.10254942327, -1, 0.154953216247
528, 1.16948681889, -1, 0.174780976148
529, 1.2360679775, -1, 0.195773934819
530, 1.30227261783, -1, 0.217925697603
531, 1.3680805733, -1, 0.241229516856
532, 1.43347179818, -1, 0.265678294011
533, 1.49842637366, -1, 0.291264581733
534, 1.56292451396, -1, 0.31798058619
535, 1.6269465723, -1, 0.34581816943
536, 1.69047304696, -1, 0.374768851853
537, 1.75348458716, -1, 0.404823814803
538, 1.81596199896, -1, 0.435973903247
539, 1.87788625114, -1, 0.468209628564
540, 1.93923848099, -1, 0.501521171442
541, 2, -1, 0.535898384862
542, 2.06015229964, -1, 0.571330797192
543, 2.11967705693, -1, 0.607807615374
544, 2.17855614006, -1, 0.645317728218
545, 2.23677161388, -1, 0.68384970978
546, 2.2943057454, -1, 0.723391822844
547, 2.35114100917, -1, 0.7639320225
548, 2.40726009261, -1, 0.805457959811
549, 2.4626459013, -1, 0.847956985573
550, 2.5172815642, -1, 0.891416154172
551, 2.57115043875, -1, 0.935822227524
552, 2.62423611596, -1, 0.981161679109
553, 2.67652242544, -1, 1.02742069809
554, 2.72799344025, -1, 1.07458519352
555, 2.77863348184, -1, 1.12264079865
556, 2.82842712475, -1, 1.17157287525
557, 2.87735920135, -1, 1.22136651816
558, 2.92541480648, -1, 1.27200655975
559, 2.97257930191, -1, 1.32347757456
560, 3.01883832089, -1, 1.37576388404
561, 3.06417777248, -1, 1.42884956125
562, 3.10858384583, -1, 1.4827184358
563, 3.15204301443, -1, 1.5373540987
564, 3.19454204019, -1, 1.59273990739
565, 3.2360679775, -1, 1.64885899083
566, 3.27660817716, -1, 1.7056942546
567, 3.31615029022, -1, 1.76322838612
568, 3.35468227178, -1, 1.82144385994
569, 3.39219238463, -1, 1.88032294307
570, 3.42866920281, -1, 1.93984770036
571, 3.46410161514, -1, 2
572, 3.49847882856, -1, 2.06076151901
573, 3.53179037144, -1, 2.12211374886
574, 3.56402609675, -1, 2.18403800104
575, 3.5951761852, -1, 2.24651541284
576, 3.62523114815, -1, 2.30952695304
577, 3.65418183057, -1, 2.3730534277
578, 3.68201941381, -1, 2.43707548604
579, 3.70873541827, -1, 2.50157362634
580, 3.73432170599, -1, 2.56652820182
581, 3.75877048314, -1, 2.6319194267
582, 3.7820743024, -1, 2.69772738217
583, 3.80422606518, -1, 2.7639320225
584, 3.82521902385, -1, 2.83051318111
585, 3.84504678375, -1, 2.89745057673
586, 3.86370330516, -1, 2.96472381959
587, 3.8811829051, -1, 3.0323124176
588, 3.89748025914, -1, 3.10019578262
589, 3.91259040294, -1, 3.16835323673
590, 3.92650873379, -1, 3.23676401849
591, 3.93923101205, -1, 3.30540728933
592, 3.95075336238, -1, 3.37426213984
593, 3.96107227497, -1, 3.44330759616
594, 3.97018460657, -1, 3.51252262638
595, 3.97808758147, -1, 3.58188614693
596, 3.98477879237, -1, 3.65137702901
597, 3.99025620104, -1, 3.72097410502
598, 3.99451813902, -1, 3.79065617503
599, 3.99756330808, -1, 3.86040201319
600, 3.99939078063, -1, 3.93019037425
601, 4, -1, 4
602, 3.99939078063, -1, 4.06980962575
603, 3.99756330808, -1, 4.13959798681
604, 3.99451813902, -1, 4.20934382497
605, 3.99025620104, -1, 4.27902589498
606, 3.98477879237, -1, 4.34862297099
607, 3.97808758147, -1, 4.41811385307
608, 3.97018460657, -1, 4.48747737362
609, 3.96107227497, -1, 4.55669240384
610, 3.95075336238, -1, 4.62573786016
611, 3.93923101205, -1, 4.69459271067
612, -3.93923101205, 2, 4.69459271067
613, -3.95075336238, 2, 4.62573786016
614, -3.96107227497, 2, 4.55669240384
615, -3.97018460657, 2, 4.48747737362
616, -3.97808758147, 2, 4.41811385307
617, -3.98477879237, 2, 4.34862297099
618, -3.99025620104, 2, 4.27902589498
619, -3.99451813902, 2, 4.20934382497
620, -3.99756330808, 2, 4.13959798681
621, -3.99939078063, 2, 4.06980962575
622, -4, 2, 4
623, -3.99939078063, 2, 3.93019037425
624, -3.99756330808, 2, 3.86040201319
625, -3.99451813902, 2, 3.79065617503
626, -3.99025620104, 2, 3.72097410502
627, -3.98477879237, 2, 3.65137702901
628, -3.97808758147, 2, 3.58188614693
629, -3.97018460657, 2, 3.51252262638
630, -3.96107227497, 2, 3.44330759616
631, -3.95075336238, 2, 3.37426213984
632, -3.93923101205, 2, 3.30540728933
633, -3.92650873379, 2, 3.23676401849
634, -3.91259040294, 2, 3.16835323673
635, -3.89748025914, 2, 3.10019578262
636, -3.8811829051, 2, 3.0323124176
637, -3.86370330516, 2, 2.96472381959
638, -3.84504678375, 2, 2.89745057673
639, -3.82521902385, 2, 2.83051318111
640, -3.80422606518, 2, 2.7639320225
641, -3.7820743024, 2, 2.69772738217
642, -3.75877048314, 2, 2.6319194267
643, -3.73432170599, 2, 2.56652820182
644, -3.70873541827, 2, 2.50157362634
645, -3.68201941381, 2, 2.43707548604
646, -3.65418183057, 2, 2.3730534277
647, -3.62523114815, 2, 2.30952695304
648, -3.5951761852, 2, 2.24651541284
649, -3.56402609675, 2, 2.18403800104
650, -3.53179037144, 2, 2.12211374886
651, -3.49847882856, 2, 2.06076151901
652, -3.46410161514, 2, 2
653, -3.42866920281, 2, 1.93984770036
654, -3.39219238463, 2, 1.88032294307
655, -3.35468227178, 2, 1.82144385994
656, -3.31615029022, 2, 1.76322838612
657, -3.27660817716, 2, 1.7056942546
658, -3.2360679775, 2, 1.64885899083
659, -3.19454204019, 2, 1.59273990739
660, -3.15204301443, 2, 1.5373540987
661, -3.10858384583, 2, 1.4827184358
662, -3.06417777248, 2, 1.42884956125
663, -3.01883832089, 2, 1.37576388404
664, -2.97257930191, 2, 1.32347757456
665, -2.92541480648, 2, 1.27200655975
666, -2.87735920135, 2, 1.22136651816
667, -2.82842712475, 2, 1.17157287525
668, -2.77863348184, 2, 1.12264079865
669, -2.72799344025, 2, 1.07458519352
670, -2.67652242544, 2, 1.02742069809
671, -2.62423611596, 2, 0.981161679109
672, -2.57115043875, 2, 0.935822227524
673, -2.5172815642, 2, 0.891416154172
674, -2.4626459013, 2, 0.847956985573
675, -2.40726009261, 2, 0.805457959811
676, -2.35114100917, 2, 0.7639320225
677, -2.2943057454, 2, 0.723391822844
678, -2.23677161388, 2, 0.68384970978
679, -2.17855614006, 2, 0.645317728218
680, -2.11967705693, 2, 0.607807615374
681, -2.06015229964, 2, 0.571330797192
682, -2, 2, 0.535898384862
683, -1.93923848099, 2, 0.501521171442
684, -1.87788625114, 2, 0.468209628564
685, -1.81596199896, 2, 0.435973903247
686, -1.75348458716, 2, 0.404823814803
687, -1.69047304696, 2, 0.374768851853
688, -1.6269465723, 2, 0.34581816943
689, -1.56292451396, 2, 0.31798058619
690, -1.49842637366, 2, 0.291264581733
691, -1.43347179818, 2, 0.265678294011
692, -1.3680805733, 2, 0.241229516856
693, -1.30227261783, 2, 0.217925697603
694, -1.2360679775, 2, 0.195773934819
695, -1.16948681889, 2, 0.174780976148
696, -1.10254942327, 2, 0.154953216247
697, -1.03527618041, 2, 0.136296694844
698, -0.967687582399, 2, 0.118817094896
699, -0.899804217375, 2, 0.102519740859
700, -0.831646763271, 2, 0.0874095970648
701, -0.763235981506, 2, 0.0734912662093
702, -0.694592710668, 2, 0.0607689879512
703, -0.625737860161, 2, 0.0492466376194
704, -0.55669240384, 2, 0.0389277250337
705, -0.487477373621, 2, 0.0298153934347
706, -0.418113853071, 2, 0.0219124185269
707, -0.348622970991, 2, 0.015221207633
708, -0.279025894977, 2, 0.0097437989607
709, -0.209343824972, 2, 0.0054818609817
710, -0.13959798681, 2, 0.00243669192362
711, -0.0698096257491, 2, 0.000609219374435
712, 0, 2, 0
713, 0.0698096257491, 2, 0.000609219374435
714, 0.13959798681, 2, 0.00243669192362
715, 0.209343824972, 2, 0.0054818609817
716, 0.279025894977, 2, 0.0097437989607
717, 0.348622970991, 2, 0.015221207633
718, 0.418113853071, 2, 0.0219124185269
719, 0.487477373621, 2, 0.0298153934347
720, 0.55669240384, 2, 0.0389277250337
721, 0.625737860161, 2, 0.0492466376194
722, 0.694592710668, 2, 0.0607689879512
723, 0.763235981506, 2, 0.0734912662093
724, 0.831646763271, 2, 0.0874095970648
725, 0.899804217375, 2, 0.102519740859
726, 0.967687582399, 2, 0.118817094896
727, 1.03527618041, 2, 0.136296694844
728, 1.10254942327, 2, 0.154953216247
729, 1.16948681889, 2, 0.174780976148
730, 1.2360679775, 2, 0.195773934819
731, 1.30227261783, 2, 0.217925697603
732, 1.3680805733, 2, 0.241229516856
733, 1.43347179818, 2, 0.265678294011
734, 1.49842637366, 2, 0.291264581733
735, 1.56292451396, 2, 0.31798058619
736, 1.6269465723, 2, 0.34581816943
737, 1.69047304696, 2, 0.374768851853
738, 1.75348458716, 2, 0.404823814803
739, 1.81596199896, 2, 0.435973903247
740, 1.87788625114, 2, 0.468209628564
741, 1.93923848099, 2, 0.501521171442
742, 2, 2, 0.535898384862
743, 2.06015229964, 2, 0.571330797192
744, 2.11967705693, 2, 0.607807615374
745, 2.17855614006, 2, 0.645317728218
746, 2.23677161388, 2, 0.68384970978
747, 2.2943057454, 2, 0.723391822844
748, 2.35114100917, 2, 0.7639320225
749, 2.40726009261, 2, 0.805457959811
750, 2.4626459013, 2, 0.847956985573
751, 2.5172815642, 2, 0.891416154172
752, 2.57115043875, 2, 0.935822227524
753, 2.62423611596, 2, 0.981161679109
754, 2.67652242544, 2, 1.02742069809
755, 2.72799344025, 2, 1.07458519352
756, 2.77863348184, 2, 1.12264079865
757, 2.82842712475, 2, 1.17157287525
758, 2.87735920135, 2, 1.22136651816
759, 2.92541480648, 2, 1.27200655975
760, 2.97257930191, 2, 1.32347757456
761, 3.01883832089, 2, 1.37576388404
762, 3.06417777248, 2, 1.42884956125
763, 3.10858384583, 2, 1.4827184358
764, 3.15204301443, 2, 1.5373540987
765, 3.19454204019, 2, 1.59273990739
766, 3.2360679775, 2, 1.64885899083
767, 3.27660817716, 2, 1.7056942546
768, 3.31615029022, 2, 1.76322838612
769, 3.35468227178, 2, 1.82144385994
770, 3.39219238463, 2, 1.88032294307
771, 3.42866920281, 2, 1.93984770036
772, 3.46410161514, 2, 2
773, 3.49847882856, 2, 2.06076151901
774, 3.53179037144, 2, 2.12211374886
775, 3.56402609675, 2, 2.18403800104
776, 3.5951761852, 2, 2.24651541284
777, 3.62523114815, 2, 2.30952695304
778, 3.65418183057, 2, 2.3730534277
779, 3.68201941381, 2, 2.43707548604
780, 3.70873541827, 2, 2.50157362634
781, 3.73432170599, 2, 2.56652820182
782, 3.75877048314, 2, 2.6319194267
783, 3.7820743024, 2, 2.69772738217
784, 3.80422606518, 2, 2.7639320225
785, 3.82521902385, 2, 2.83051318111
786, 3.84504678375, 2, 2.89745057673
787, 3.86370330516, 2, 2.96472381959
788, 3.8811829051, 2, 3.0323124176
789, 3.89748025914, 2, 3.10019578262
790, 3.91259040294, 2, 3.16835323673
791, 3.92650873379, 2, 3.23676401849
792, 3.93923101205, 2, 3.30540728933
793, 3.95075336238, 2, 3.37426213984
794, 3.96107227497, 2, 3.44330759616
795, 3.97018460657, 2, 3.51252262638
796, 3.97808758147, 2, 3.58188614693
797, 3.98477879237, 2, 3.65137702901
798, 3.99025620104, 2, 3.72097410502
799, 3.99451813902, 2, 3.79065617503
800, 3.99756330808, 2, 3.86040201319
801, 3.99939078063, 2, 3.93019037425
802, 4, 2, 4
803, 3.99939078063, 2, 4.06980962575
804, 3.99756330808, 2, 4.13959798681
805, 3.99451813902, 2, 4.20934382497
806, 3.99025620104, 2, 4.27902589498
807, 3.98477879237, 2, 4.34862297099
808, 3.97808758147, 2, 4.41811385307
809, 3.97018460657, 2, 4.48747737362
810, 3.96107227497, 2, 4.55669240384
811, 3.95075336238, 2, 4.62573786016
812, 3.93923101205, 2, 4.69459271067
813, -3.44682713554, -1, 4.60776862183
814, -3.45690919208, -1, 4.54752062764
815, -3.4659382406, -1, 4.48710585336
816, -3.47391153074, -1, 4.42654270192
817, -3.48082663379, -1, 4.36584962144
818, -3.48668144332, -1, 4.30504509962
819, -3.49147417591, -1, 4.2441476581
820, -3.49520337164, -1, 4.18317584685
821, -3.49786789457, -1, 4.12214823846
822, -3.49946693305, -1, 4.06108342253
823, -3.5, -1, 4
824, -3.49946693305, -1, 3.93891657747
825, -3.49786789457, -1, 3.87785176154
826, -3.49520337164, -1, 3.81682415315
827, -3.49147417591, -1, 3.7558523419
828, -3.48668144332, -1, 3.69495490038
829, -3.48082663379, -1, 3.63415037856
830, -3.47391153074, -1, 3.57345729808
831, -3.4659382406, -1, 3.51289414664
832, -3.45690919208, -1, 3.45247937236
833, -3.44682713554, -1, 3.39223137817
834, -3.43569514207, -1, 3.33216851618
835, -3.42351660257, -1, 3.27230908214
836, -3.41029522675, -1, 3.2126713098
837, -3.39603504197, -1, 3.1532733654
838, -3.38074039201, -1, 3.09413334214
839, -3.36441593578, -1, 3.03526925464
840, -3.34706664587, -1, 2.97669903347
841, -3.32869780703, -1, 2.91844051969
842, -3.3093150146, -1, 2.8605114594
843, -3.28892417275, -1, 2.80292949836
844, -3.26753149274, -1, 2.74571217659
845, -3.24514349098, -1, 2.68887692304
846, -3.22176698708, -1, 2.63244105029
847, -3.19740910175, -1, 2.57642174923
848, -3.17207725463, -1, 2.52083608391
849, -3.14577916205, -1, 2.46570098624
850, -3.11852283466, -1, 2.41103325091
851, -3.09031657501, -1, 2.35684953025
852, -3.06116897499, -1, 2.30316632914
853, -3.03108891325, -1, 2.25
854, -3.00008555246, -1, 2.19736673781
855, -2.96816833655, -1, 2.14528257518
856, -2.93534698781, -1, 2.09376337745
857, -2.90163150394, -1, 2.04282483785
858, -2.86703215501, -1, 1.99248247277
859, -2.83155948031, -1, 1.94275161698
860, -2.79522428517, -1, 1.89364741897
861, -2.75803763762, -1, 1.84518483636
862, -2.7200108651, -1, 1.79737863133
863, -2.68115555092, -1, 1.7502433661
864, -2.64148353078, -1, 1.70379339853
865, -2.60100688917, -1, 1.65804287774
866, -2.55973795567, -1, 1.61300573978
867, -2.51768930119, -1, 1.56869570339
868, -2.47487373415, -1, 1.52512626585
869, -2.43130429661, -1, 1.48231069881
870, -2.38699426022, -1, 1.44026204433
871, -2.34195712226, -1, 1.39899311083
872, -2.29620660147, -1, 1.35851646922
873, -2.2497566339, -1, 1.31884444908
874, -2.20262136867, -1, 1.2799891349
875, -2.15481516364, -1, 1.24196236238
876, -2.10635258103, -1, 1.20477571483
877, -2.05724838302, -1, 1.16844051969
878, -2.00751752723, -1, 1.13296784499
879, -1.95717516215, -1, 1.09836849606
880, -1.90623662255, -1, 1.06465301219
881, -1.85471742482, -1, 1.03183166345
882, -1.80263326219, -1, 0.999914447543
883, -1.75, -1, 0.968911086754
884, -1.69683367086, -1, 0.938831025012
885, -1.64315046975, -1, 0.909683424994
886, -1.58896674909, -1, 0.881477165341
887, -1.53429901376, -1, 0.854220837953
888, -1.47916391609, -1, 0.827922745372
889, -1.42357825077, -1, 0.802590898251
890, -1.36755894971, -1, 0.778233012916
891, -1.31112307696, -1, 0.754856509016
892, -1.25428782341, -1, 0.73246850726
893, -1.19707050164, -1, 0.711075827249
894, -1.1394885406, -1, 0.690684985402
895, -1.08155948031, -1, 0.671302192967
896, -1.02330096653, -1, 0.652933354129
897, -0.964730745359, -1, 0.635584064216
898, -0.905866657859, -1, 0.619259607988
899, -0.846726634599, -1, 0.603964958034
900, -0.787328690204, -1, 0.589704773252
901, -0.727690917862, -1, 0.576483397432
902, -0.667831483818, -1, 0.564304857933
903, -0.607768621834, -1, 0.553172864457
904, -0.547520627641, -1, 0.543090807917
905, -0.48710585336, -1, 0.534061759405
906, -0.426542701918, -1, 0.526088469255
907, -0.365849621437, -1, 0.519173366211
908, -0.305045099617, -1, 0.513318556679
909, -0.244147658104, -1, 0.508525824091
910, -0.18317584685, -1, 0.504796628359
911, -0.122148238459, -1, 0.502132105433
912, -0.0610834225305, -1, 0.500533066953
913, 0, -1, 0.5
914, 0.0610834225305, -1, 0.500533066953
915, 0.122148238459, -1, 0.502132105433
916, 0.18317584685, -1, 0.504796628359
917, 0.244147658104, -1, 0.508525824091
918, 0.305045099617, -1, 0.513318556679
919, 0.365849621437, -1, 0.519173366211
920, 0.426542701918, -1, 0.526088469255
921, 0.48710585336, -1, 0.534061759405
922, 0.547520627641, -1, 0.543090807917
923, 0.607768621834, -1, 0.553172864457
924, 0.667831483818, -1, 0.564304857933
925, 0.727690917862, -1, 0.576483397432
926, 0.787328690204, -1, 0.589704773252
927, 0.846726634599, -1, 0.603964958034
928, 0.905866657859, -1, 0.619259607988
929, 0.964730745359, -1, 0.635584064216
930, 1.02330096653, -1, 0.652933354129
931, 1.08155948031, -1, 0.671302192967
932, 1.1394885406, -1, 0.690684985402
933, 1.19707050164, -1, 0.711075827249
934, 1.25428782341, -1, 0.73246850726
935, 1.31112307696, -1, 0.754856509016
936, 1.36755894971, -1, 0.778233012916
937, 1.42357825077, -1, 0.802590898251
938, 1.47916391609, -1, 0.827922745372
939, 1.53429901376, -1, 0.854220837953
940, 1.58896674909, -1, 0.881477165341
941, 1.64315046975, -1, 0.909683424994
942, 1.69683367086, -1, 0.938831025012
943, 1.75, -1, 0.968911086754
944, 1.80263326219, -1, 0.999914447543
945, 1.85471742482, -1, 1.03183166345
946, 1.90623662255, -1, 1.06465301219
947, 1.95717516215, -1, 1.09836849606
948, 2.00751752723, -1, 1.13296784499
949, 2.05724838302, -1, 1.16844051969
950, 2.10635258103, -1, 1.20477571483
951, 2.15481516364, -1, 1.24196236238
952, 2.20262136867, -1, 1.2799891349
953, 2.2497566339, -1, 1.31884444908
954, 2.29620660147, -1, 1.35851646922
955, 2.34195712226, -1, 1.39899311083
956, 2.38699426022, -1, 1.44026204433
957, 2.43130429661, -1, 1.48231069881
958, 2.47487373415, -1, 1.52512626585
959, 2.51768930119, -1, 1.56869570339
960, 2.55973795567, -1, 1.61300573978
961, 2.60100688917, -1, 1.65804287774
962, 2.64148353078, -1, 1.70379339853
963, 2.68115555092, -1, 1.7502433661
964, 2.7200108651, -1, 1.79737863133
965, 2.75803763762, -1, 1.84518483636
966, 2.79522428517, -1, 1.89364741897
967, 2.83155948031, -1, 1.94275161698
968, 2.86703215501, -1, 1.99248247277
969, 2.90163150394, -1, 2.04282483785
970, 2.93534698781, -1, 2.09376337745
971, 2.96816833655, -1, 2.14528257518
972, 3.00008555246, -1, 2.19736673781
973, 3.03108891325, -1, 2.25
974, 3.06116897499, -1, 2.30316632914
975, 3.09031657501, -1, 2.35684953025
976, 3.11852283466, -1, 2.41103325091
977, 3.14577916205, -1, 2.46570098624
978, 3.17207725463, -1, 2.52083608391
979, 3.19740910175, -1, 2.57642174923
980, 3.22176698708, -1, 2.63244105029
981, 3.24514349098, -1, 2.68887692304
982, 3.26753149274, -1, 2.74571217659
983, 3.28892417275, -1, 2.80292949836
984, 3.3093150146, -1, 2.8605114594
985, 3.32869780703, -1, 2.91844051969
986, 3.34706664587, -1, 2.97669903347
987, 3.36441593578, -1, 3.03526925464
988, 3.38074039201, -1, 3.09413334214
989, 3.39603504197, -1, 3.1532733654
990, 3.41029522675, -1, 3.2126713098
991, 3.42351660257, -1, 3.27230908214
992, 3.43569514207, -1, 3.33216851618
993, 3.44682713554, -1, 3.39223137817
994, 3.45690919208, -1, 3.45247937236
995, 3.4659382406, -1, 3.51289414664
996, 3.47391153074, -1, 3.57345729808
997, 3.48082663379, -1, 3.63415037856
998, 3.48668144332, -1, 3.69495490038
999, 3.49147417591, -1, 3.7558523419
1000, 3.49520337164, -1, 3.81682415315
1001, 3.49786789457, -1, 3.87785176154
1002, 3.49946693305, -1, 3.93891657747
1003, 3.5, -1, 4
1004, 3.49946693305, -1, 4.06108342253
1005, 3.49786789457, -1, 4.12214823846
1006, 3.49520337164, -1, 4.18317584685
1007, 3.49147417591, -1, 4.2441476581
1008, 3.48668144332, -1, 4.30504509962
1009, 3.48082663379, -1, 4.36584962144
1010, 3.47391153074, -1, 4.42654270192
1011, 3.4659382406, -1, 4.48710585336
1012, 3.45690919208, -1, 4.54752062764
1013, 3.44682713554, -1, 4.60776862183
1014, -3.44682713554, 2, 4.60776862183
1015, -3.45690919208, 2, 4.54752062764
1016, -3.4659382406, 2, 4.48710585336
1017, -3.47391153074, 2, 4.42654270192
1018, -3.48082663379, 2, 4.36584962144
1019, -3.48668144332, 2, 4.30504509962
1020, -3.49147417591, 2, 4.2441476581
1021, -3.49520337164, 2, 4.18317584685
1022, -3.49786789457, 2, 4.12214823846
1023, -3.49946693305, 2, 4.06108342253
1024, -3.5, 2, 4
1025, -3.49946693305, 2, 3.93891657747
1026, -3.49786789457, 2, 3.87785176154
1027, -3.49520337164, 2, 3.81682415315
1028, -3.49147417591, 2, 3.7558523419
1029, -3.48668144332, 2, 3.69495490038
1030, -3.48082663379, 2, 3.63415037856
1031, -3.47391153074, 2, 3.57345729808
1032, -3.4659382406, 2, 3.51289414664
1033, -3.45690919208, 2, 3.45247937236
1034, -3.44682713554, 2, 3.39223137817
1035, -3.43569514207, 2, 3.33216851618
1036, -3.42351660257, 2, 3.27230908214
1037, -3.41029522675, 2, 3.2126713098
1038, -3.39603504197, 2, 3.1532733654
1039, -3.38074039201, 2, 3.09413334214
1040, -3.36441593578, 2, 3.03526925464
1041, -3.34706664587, 2, 2.97669903347
1042, -3.32869780703, 2, 2.91844051969
1043, -3.3093150146, 2, 2.8605114594
1044, -3.28892417275, 2, 2.80292949836
1045, -3.26753149274, 2, 2.74571217659
1046, -3.24514349098, 2, 2.68887692304
1047, -3.22176698708, 2, 2.63244105029
1048, -3.19740910175, 2, 2.57642174923
1049, -3.17207725463, 2, 2.52083608391
1050, -3.14577916205, 2, 2.46570098624
1051, -3.11852283466, 2, 2.41103325091
1052, -3.09031657501, 2, 2.35684953025
1053, -3.06116897499, 2, 2.30316632914
1054, -3.03108891325, 2, 2.25
1055, -3.00008555246, 2, 2.19736673781
1056, -2.96816833655, 2, 2.14528257518
1057, -2.93534698781, 2, 2.09376337745
1058, -2.90163150394, 2, 2.04282483785
1059, -2.86703215501, 2, 1.99248247277
1060, -2.83155948031, 2, 1.94275161698
1061, -2.79522428517, 2, 1.89364741897
1062, -2.75803763762, 2, 1.84518483636
1063, -2.7200108651, 2, 1.79737863133
1064, -2.68115555092, 2, 1.7502433661
1065, -2.64148353078, 2, 1.70379339853
1066, -2.60100688917, 2, 1.65804287774
1067, -2.55973795567, 2, 1.61300573978
1068, -2.51768930119, 2, 1.56869570339
1069, -2.47487373415, 2, 1.52512626585
1070, -2.43130429661, 2, 1.48231069881
1071, -2.38699426022, 2, 1.44026204433
1072, -2.34195712226, 2, 1.39899311083
1073, -2.29620660147, 2, 1.35851646922
1074, -2.2497566339, 2, 1.31884444908
1075, -2.20262136867, 2, 1.2799891349
1076, -2.15481516364, 2, 1.24196236238
1077, -2.10635258103, 2, 1.20477571483
1078, -2.05724838302, 2, 1.16844051969
1079, -2.00751752723, 2, 1.13296784499
1080, -1.95717516215, 2, 1.09836849606
1081, -1.90623662255, 2, 1.06465301219
1082, -1.85471742482, 2, 1.03183166345
1083, -1.80263326219, 2, 0.999914447543
1084, -1.75, 2, 0.968911086754
1085, -1.69683367086, 2, 0.938831025012
1086, -1.64315046975, 2, 0.909683424994
1087, -1.58896674909, 2, 0.881477165341
1088, -1.53429901376, 2, 0.854220837953
1089, -1.47916391609, 2, 0.827922745372
1090, -1.42357825077, 2, 0.802590898251
1091, -1.36755894971, 2, 0.778233012916
1092, -1.31112307696, 2, 0.754856509016
1093, -1.25428782341, 2, 0.73246850726
1094, -1.19707050164, 2, 0.711075827249
1095, -1.1394885406, 2, 0.690684985402
1096, -1.08155948031, 2, 0.671302192967
1097, -1.02330096653, 2, 0.652933354129
1098, -0.964730745359, 2, 0.635584064216
1099, -0.905866657859, 2, 0.619259607988
1100, -0.846726634599, 2, 0.603964958034
1101, -0.787328690204, 2, 0.589704773252
1102, -0.727690917862, 2, 0.576483397432
1103, -0.667831483818, 2, 0.564304857933
1104, -0.607768621834, 2, 0.553172864457
1105, -0.547520627641, 2, 0.543090807917
1106, -0.48710585336, 2, 0.534061759405
1107, -0.426542701918, 2, 0.526088469255
1108, -0.365849621437, 2, 0.519173366211
1109, -0.305045099617, 2, 0.513318556679
1110, -0.244147658104, 2, 0.508525824091
1111, -0.18317584685, 2, 0.504796628359
1112, -0.122148238459, 2, 0.502132105433
1113, -0.0610834225305, 2, 0.500533066953
1114, 0, 2, 0.5
1115, 0.0610834225305, 2, 0.500533066953
1116, 0.122148238459, 2, 0.502132105433
1117, 0.18317584685, 2, 0.504796628359
1118, 0.244147658104, 2, 0.508525824091
1119, 0.305045099617, 2, 0.513318556679
1120, 0.365849621437, 2, 0.519173366211
1121, 0.426542701918, 2, 0.526088469255
1122, 0.48710585336, 2, 0.534061759405
1123, 0.547520627641, 2, 0.543090807917
1124, 0.607768621834, 2, 0.553172864457
1125, 0.667831483818, 2, 0.564304857933
1126, 0.727690917862, 2, 0.576483397432
1127, 0.787328690204, 2, 0.589704773252
1128, 0.846726634599, 2, 0.603964958034
1129, 0.905866657859, 2, 0.619259607988
1130, 0.964730745359, 2, 0.635584064216
1131, 1.02330096653, 2, 0.652933354129
1132, 1.08155948031, 2, 0.671302192967
1133, 1.1394885406, 2, 0.690684985402
1134, 1.19707050164, 2, 0.711075827249
1135, 1.25428782341, 2, 0.73246850726
1136, 1.31112307696, 2, 0.754856509016
1137, 1.36755894971, 2, 0.778233012916
1138, 1.42357825077, 2, 0.802590898251
1139, 1.47916391609, 2, 0.827922745372
1140, 1.53429901376, 2, 0.854220837953
1141, 1.58896674909, 2, 0.881477165341
1142, 1.64315046975, 2, 0.909683424994
1143, 1.69683367086, 2, 0.938831025012
1144, 1.75, 2, 0.968911086754
1145, 1.80263326219, 2, 0.999914447543
1146, 1.85471742482, 2, 1.03183166345
1147, 1.90623662255, 2, 1.06465301219
1148, 1.95717516215, 2, 1.09836849606
1149, 2.00751752723, 2, 1.13296784499
1150, 2.05724838302, 2, 1.16844051969
1151, 2.10635258103, 2, 1.20477571483
1152, 2.15481516364, 2, 1.24196236238
1153, 2.20262136867, 2, 1.2799891349
1154, 2.2497566339, 2, 1.31884444908
1155, 2.29620660147, 2, 1.35851646922
1156, 2.34195712226, 2, 1.39899311083
1157, 2.38699426022, 2, 1.44026204433
1158, 2.43130429661, 2, 1.48231069881
1159, 2.47487373415, 2, 1.52512626585
1160, 2.51768930119, 2, 1.56869570339
1161, 2.55973795567, 2, 1.61300573978
1162, 2.60100688917, 2, 1.65804287774
1163, 2.64148353078, 2, 1.70379339853
1164, 2.68115555092, 2, 1.7502433661
1165, 2.7200108651, 2, 1.79737863133
1166, 2.75803763762, 2, 1.84518483636
1167, 2.79522428517, 2, 1.89364741897
1168, 2.83155948031, 2, 1.94275161698
1169, 2.86703215501, 2, 1.99248247277
1170, 2.90163150394, 2, 2.04282483785
1171, 2.93534698781, 2, 2.09376337745
1172, 2.96816833655, 2, 2.14528257518
1173, 3.00008555246, 2, 2.19736673781
1174, 3.03108891325, 2, 2.25
1175, 3.06116897499, 2, 2.30316632914
1176, 3.09031657501, 2, 2.35684953025
1177, 3.11852283466, 2, 2.41103325091
1178, 3.14577916205, 2, 2.46570098624
1179, 3.17207725463, 2, 2.52083608391
1180, 3.19740910175, 2, 2.57642174923
1181, 3.22176698708, 2, 2.63244105029
1182, 3.24514349098, 2, 2.68887692304
1183, 3.26753149274, 2, 2.74571217659
1184, 3.28892417275, 2, 2.80292949836
1185, 3.3093150146, 2, 2.8605114594
1186, 3.32869780703, 2, 2.91844051969
1187, 3.34706664587, 2, 2.97669903347
1188, 3.36441593578, 2, 3.03526925464
1189, 3.38074039201, 2, 3.09413334214
1190, 3.39603504197, 2, 3.1532733654
1191, 3.41029522675, 2, 3.2126713098
1192, 3.42351660257, 2, 3.27230908214
1193, 3.43569514207, 2, 3.33216851618
1194, 3.44682713554, 2, 3.39223137817
1195, 3.45690919208, 2, 3.45247937236
1196, 3.4659382406, 2, 3.51289414664
1197, 3.47391153074, 2, 3.57345729808
1198, 3.48082663379, 2, 3.63415037856
1199, 3.48668144332, 2, 3.69495490038
1200, 3.49147417591, 2, 3.7558523419
1201, 3.49520337164, 2, 3.81682415315
1202, 3.49786789457, 2, 3.87785176154
1203, 3.49946693305, 2, 3.93891657747
1204, 3.5, 2, 4
1205, 3.49946693305, 2, 4.06108342253
1206, 3.49786789457, 2, 4.12214823846
1207, 3.49520337164, 2, 4.18317584685
1208, 3.49147417591, 2, 4.2441476581
1209, 3.48668144332, 2, 4.30504509962
1210, 3.48082663379, 2, 4.36584962144
1211, 3.47391153074, 2, 4.42654270192
1212, 3.4659382406, 2, 4.48710585336
1213, 3.45690919208, 2, 4.54752062764
1214, 3.44682713554, 2, 4.60776862183
*ELEMENT, TYPE=C3D8, ELSET=SHEET
1, 1, 2, 43, 42, 83, 84, 125, 124
2, 2, 3, 44, 43, 84, 85, 126, 125
3, 3, 4, 45, 44, 85, 86, 127, 126
4, 4, 5, 46, 45, 86, 87, 128, 127
5, 5, 6, 47, 46, 87, 88, 129, 128
6, 6, 7, 48, 47, 88, 89, 130, 129
7, 7, 8, 49, 48, 89, 90, 131, 130
8, 8, 9, 50, 49, 90, 91, 132, 131
9, 9, 10, 51, 50, 91, 92, 133, 132
10, 10, 11, 52, 51, 92, 93, 134, 133
11, 11, 12, 53, 52, 93, 94, 135, 134
12, 12, 13, 54, 53, 94, 95, 136, 135
13, 13, 14, 55, 54, 95, 96, 137, 136
14, 14, 15, 56, 55, 96, 97, 138, 137
15, 15, 16, 57, 56, 97, 98, 139, 138
16, 16, 17, 58, 57, 98, 99, 140, 139
17, 17, 18, 59, 58, 99, 100, 141, 140
18, 18, 19, 60, 59, 100, 101, 142, 141
19, 19, 20, 61, 60, 101, 102, 143, 142
20, 20, 21, 62, 61, 102, 103, 144, 143
21, 21, 22, 63, 62, 103, 104, 145, 144
22, 22, 23, 64, 63, 104, 105, 146, 145
23, 23, 24, 65, 64, 105, 106, 147, 146
24, 24, 25, 66, 65, 106, 107, 148, 147
25, 25, 26, 67, 66, 107, 108, 149, 148
26, 26, 27, 68, 67, 108, 109, 150, 149
27, 27, 28, 69, 68, 109, 110, 151, 150
28, 28, 29, 70, 69, 110, 111, 152, 151
29, 29, 30, 71, 70, 111, 112, 153, 152
30, 30, 31, 72, 71, 112, 113, 154, 153
31, 31, 32, 73, 72, 113, 114, 155, 154
32, 32, 33, 74, 73, 114, 115, 156, 155
33, 33, 34, 75, 74, 115, 116, 157, 156
34, 34, 35, 76, 75, 116, 117, 158, 157
35, 35, 36, 77, 76, 117, 118, 159, 158
36, 36, 37, 78, 77, 118, 119, 160, 159
37, 37, 38, 79, 78, 119, 120, 161, 160
38, 38, 39, 80, 79, 120, 121, 162, 161
39, 39, 40, 81, 80, 121, 122, 163, 162
40, 40, 41, 82, 81, 122, 123, 164, 163
41, 83, 84, 125, 124, 165, 166, 207, 206
42, 84, 85, 126, 125, 166, 167, 208, 207
43, 85, 86, 127, 126, 167, 168, 209, 208
44, 86, 87, 128, 127, 168, 169, 210, 209
45, 87, 88, 129, 128, 169, 170, 211, 210
46, 88, 89, 130, 129, 170, 171, 212, 211
47, 89, 90, 131, 130, 171, 172, 213, 212
48, 90, 91, 132, 131, 172, 173, 214, 213
49, 91, 92, 133, 132, 173, 174, 215, 214
50, 92, 93, 134, 133, 174, 175, 216, 215
51, 93, 94, 135, 134, 175, 176, 217, 216
52, 94, 95, 136, 135, 176, 177, 218, 217
53, 95, 96, 137, 136, 177, 178, 219, 218
54, 96, 97, 138, 137, 178, 179, 220, 219
55, 97, 98, 139, 138, 179, 180, 221, 220
56, 98, 99, 140, 139, 180, 181, 222, 221
57, 99, 100, 141, 140, 181, 182, 223, 222
58, 100, 101, 142, 141, 182, 183, 224, 223
59, 101, 102, 143, 142, 183, 184, 225, 224
60, 102, 103, 144, 143, 184, 185, 226, 225
61, 103, 104, 145, 144, 185, 186, 227, 226
62, 104, 105, 146, 145, 186, 187, 228, 227
63, 105, 106, 147, 146, 187, 188, 229, 228
64, 106, 107, 148, 147, 188, 189, 230, 229
65, 107, 108, 149, 148, 189, 190, 231, 230
66, 108, 109, 150, 149, 190, 191, 232, 231
67, 109, 110, 151, 150, 191, 192, 233, 232
68, 110, 111, 152, 151, 192, 193, 234, 233
69, 111, 112, 153, 152, 193, 194, 235, 234
70, 112, 113, 154, 153, 194, 195, 236, 235
71, 113, 114, 155, 154, 195, 196, 237, 236
72, 114, 115, 156, 155, 196, 197, 238, 237
73, 115, 116, 157, 156, 197, 198, 239, 238
74, 116, 117, 158, 157, 198, 199, 240, 239
75, 117, 118, 159, 158, 199, 200, 241, 240
76, 118, 119, 160, 159, 200, 201, 242, 241
77, 119, 120, 161, 160, 201, 202, 243, 242
78, 120, 121, 162, 161, 202, 203, 244, 243
79, 121, 122, 163, 162, 203, 204, 245, 244
80, 122, 123, 164, 163, 204, 205, 246, 245
81, 165, 166, 207, 206, 247, 248, 289, 288
82, 166, 167, 208, 207, 248, 249, 290, 289
83, 167, 168, 209, 208, 249, 250, 291, 290
84, 168, 169, 210, 209, 250, 251, 292, 291
85, 169, 170, 211, 210, 251, 252, 293, 292
86, 170, 171, 212, 211, 252, 253, 294, 293
87, 171, 172, 213, 212, 253, 254, 295, 294
88, 172, 173, 214, 213, 254, 255, 296, 295
89, 173, 174, 215, 214, 255, 256, 297, 296
90, 174, 175, 216, 215, 256, 257, 298, 297
91, 175, 176, 217, 216, 257, 258, 299, 298
92, 176, 177, 218, 217, 258, 259, 300, 299
93, 177, 178, 219, 218, 259, 260, 301, 300
94, 178, 179, 220, 219, 260, 261, 302, 301
95, 179, 180, 221, 220, 261, 262, 303, 302
96, 180, 181, 222, 221, 262, 263, 304, 303
97, 181, 182, 223, 222, 263, 264, 305, 304
98, 182, 183, 224, 223, 264, 265, 306, 305
99, 183, 184, 225, 224, 265, 266, 307, 306
100, 184, 185, 226, 225, 266, 267, 308, 307
101, 185, 186, 227, 226, 267, 268, 309, 308
102, 186, 187, 228, 227, 268, 269, 310, 309
103, 187, 188, 229, 228, 269, 270, 311, 310
104, 188, 189, 230, 229, 270, 271, 312, 311
105, 189, 190, 231, 230, 271, 272, 313, 312
106, 190, 191, 232, 231, 272, 273, 314, 313
107, 191, 192, 233, 232, 273, 274, 315, 314
108, 192, 193, 234, 233, 274, 275, 316, 315
109, 193, 194, 235, 234, 275, 276, 317, 316
110, 194, 195, 236, 235, 276, 277, 318, 317
111, 195, 196, 237, 236, 277, 278, 319, 318
112, 196, 197, 238, 237, 278, 279, 320, 319
113, 197, 198, 239, 238, 279, 280, 321, 320
114, 198, 199, 240, 239, 280, 281, 322, 321
115, 199, 200, 241, 240, 281, 282, 323, 322
116, 200, 201, 242, 241, 282, 283, 324, 323
117, 201, 202, 243, 242, 283, 284, 325, 324
118, 202, 203, 244, 243, 284, 285, 326, 325
119, 203, 204, 245, 244, 285, 286, 327, 326
120, 204, 205, 246, 245, 286, 287, 328, 327
121, 247, 248, 289, 288, 329, 330, 371, 370
122, 248, 249, 290, 289, 330, 331, 372, 371
123, 249, 250, 291, 290, 331, 332, 373, 372
124, 250, 251, 292, 291, 332, 333, 374, 373
125, 251, 252, 293, 292, 333, 334, 375, 374
126, 252, 253, 294, 293, 334, 335, 376, 375
127, 253, 254, 295, 294, 335, 336, 377, 376
128, 254, 255, 296, 295, 336, 337, 378, 377
129, 255, 256, 297, 296, 337, 338, 379, 378
130, 256, 257, 298, 297, 338, 339, 380, 379
131, 257, 258, 299, 298, 339, 340, 381, 380
132, 258, 259, 300, 299, 340, 341, 382, 381
133, 259, 260, 301, 300, 341, 342, 383, 382
134, 260, 261, 302, 301, 342, 343, 384, 383
135, 261, 262, 303, 302, 343, 344, 385, 384
136, 262, 263, 304, 303, 344, 345, 386, 385
137, 263, 264, 305, 304, 345, 346, 387, 386
138, 264, 265, 306, 305, 346, 347, 388, 387
139, 265, 266, 307, 306, 347, 348, 389, 388
140, 266, 267, 308, 307, 348, 349, 390, 389
141, 267, 268, 309, 308, 349, 350, 391, 390
142, 268, 269, 310, 309, 350, 351, 392, 391
143, 269, 270, 311, 310, 351, 352, 393, 392
144, 270, 271, 312, 311, 352, 353, 394, 393
145, 271, 272, 313, 312, 353, 354, 395, 394
146, 272, 273, 314, 313, 354, 355, 396, 395
147, 273, 274, 315, 314, 355, 356, 397, 396
148, 274, 275, 316, 315, 356, 357, 398, 397
149, 275, 276, 317, 316, 357, 358, 399, 398
150, 276, 277, 318, 317, 358, 359, 400, 399
151, 277, 278, 319, 318, 359, 360, 401, 400
152, 278, 279, 320, 319, 360, 361, 402, 401
153, 279, 280, 321, 320, 361, 362, 403, 402
154, 280, 281, 322, 321, 362, 363, 404, 403
155, 281, 282, 323, 322, 363, 364, 405, 404
156, 282, 283, 324, 323, 364, 365, 406, 405
157, 283, 284, 325, 324, 365, 366, 407, 406
158, 284, 285, 326, 325, 366, 367, 408, 407
159, 285, 286, 327, 326, 367, 368, 409, 408
160, 286, 287, 328, 327, 368, 369, 410, 409
*ELEMENT, TYPE=C3D8, ELSET=TOOL
161, 411, 412, 613, 612, 813, 814, 1015, 1014
162, 412, 413, 614, 613, 814, 815, 1016, 1015
163, 413, 414, 615, 614, 815, 816, 1017, 1016
164, 414, 415, 616, 615, 816, 817, 1018, 1017
165, 415, 416, 617, 616, 817, 818, 1019, 1018
166, 416, 417, 618, 617, 818, 819, 1020, 1019
167, 417, 418, 619, 618, 819, 820, 1021, 1020
168, 418, 419, 620, 619, 820, 821, 1022, 1021
169, 419, 420, 621, 620, 821, 822, 1023, 1022
170, 420, 421, 622, 621, 822, 823, 1024, 1023
171, 421, 422, 623, 622, 823, 824, 1025, 1024
172, 422, 423, 624, 623, 824, 825, 1026, 1025
173, 423, 424, 625, 624, 825, 826, 1027, 1026
174, 424, 425, 626, 625, 826, 827, 1028, 1027
175, 425, 426, 627, 626, 827, 828, 1029, 1028
176, 426, 427, 628, 627, 828, 829, 1030, 1029
177, 427, 428, 629, 628, 829, 830, 1031, 1030
178, 428, 429, 630, 629, 830, 831, 1032, 1031
179, 429, 430, 631, 630, 831, 832, 1033, 1032
180, 430, 431, 632, 631, 832, 833, 1034, 1033
181, 431, 432, 633, 632, 833, 834, 1035, 1034
182, 432, 433, 634, 633, 834, 835, 1036, 1035
183, 433, 434, 635, 634, 835, 836, 1037, 1036
184, 434, 435, 636, 635, 836, 837, 1038, 1037
185, 435, 436, 637, 636, 837, 838, 1039, 1038
186, 436, 437, 638, 637, 838, 839, 1040, 1039
187, 437, 438, 639, 638, 839, 840, 1041, 1040
188, 438, 439, 640, 639, 840, 841, 1042, 1041
189, 439, 440, 641, 640, 841, 842, 1043, 1042
190, 440, 441, 642, 641, 842, 843, 1044, 1043
191, 441, 442, 643, 642, 843, 844, 1045, 1044
192, 442, 443, 644, 643, 844, 845, 1046, 1045
193, 443, 444, 645, 644, 845, 846, 1047, 1046
194, 444, 445, 646, 645, 846, 847, 1048, 1047
195, 445, 446, 647, 646, 847, 848, 1049, 1048
196, 446, 447, 648, 647, 848, 849, 1050, 1049
197, 447, 448, 649, 648, 849, 850, 1051, 1050
198, 448, 449, 650, 649, 850, 851, 1052, 1051
199, 449, 450, 651, 650, 851, 852, 1053, 1052
200, 450, 451, 652, 651, 852, 853, 1054, 1053
201, 451, 452, 653, 652, 853, 854, 1055, 1054
202, 452, 453, 654, 653, 854, 855, 1056, 1055
203, 453, 454, 655, 654, 855, 856, 1057, 1056
204, 454, 455, 656, 655, 856, 857, 1058, 1057
205, 455, 456, 657, 656, 857, 858, 1059, 1058
206, 456, 457, 658, 657, 858, 859, 1060, 1059
207, 457, 458, 659, 658, 859, 860, 1061, 1060
208, 458, 459, 660, 659, 860, 861, 1062, 1061
209, 459, 460, 661, 660, 861, 862, 1063, 1062
210, 460, 461, 662, 661, 862, 863, 1064, 1063
211, 461, 462, 663, 662, 863, 864, 1065, 1064
212, 462, 463, 664, 663, 864, 865, 1066, 1065
213, 463, 464, 665, 664, 865, 866, 1067, 1066
214, 464, 465, 666, 665, 866, 867, 1068, 1067
215, 465, 466, 667, 666, 867, 868, 1069, 1068
216, 466, 467, 668, 667, 868, 869, 1070, 1069
217, 467, 468, 669, 668, 869, 870, 1071, 1070
218, 468, 469, 670, 669, 870, 871, 1072, 1071
219, 469, 470, 671, 670, 871, 872, 1073, 1072
220, 470, 471, 672, 671, 872, 873, 1074, 1073
221, 471, 472, 673, 672, 873, 874, 1075, 1074
222, 472, 473, 674, 673, 874, 875, 1076, 1075
223, 473, 474, 675, 674, 875, 876, 1077, 1076
224, 474, 475, 676, 675, 876, 877, 1078, 1077
225, 475, 476, 677, 676, 877, 878, 1079, 1078
226, 476, 477, 678, 677, 878, 879, 1080, 1079
227, 477, 478, 679, 678, 879, 880, 1081, 1080
228, 478, 479, 680, 679, 880, 881, 1082, 1081
229, 479, 480, 681, 680, 881, 882, 1083, 1082
230, 480, 481, 682, 681, 882, 883, 1084, 1083
231, 481, 482, 683, 682, 883, 884, 1085, 1084
232, 482, 483, 684, 683, 884, 885, 1086, 1085
233, 483, 484, 685, 684, 885, 886, 1087, 1086
234, 484, 485, 686, 685, 886, 887, 1088, 1087
235, 485, 486, 687, 686, 887, 888, 1089, 1088
236, 486, 487, 688, 687, 888, 889, 1090, 1089
237, 487, 488, 689, 688, 889, 890, 1091, 1090
238, 488, 489, 690, 689, 890, 891, 1092, 1091
239, 489, 490, 691, 690, 891, 892, 1093, 1092
240, 490, 491, 692, 691, 892, 893, 1094, 1093
241, 491, 492, 693, 692, 893, 894, 1095, 1094
242, 492, 493, 694, 693, 894, 895, 1096, 1095
243, 493, 494, 695, 694, 895, 896, 1097, 1096
244, 494, 495, 696, 695, 896, 897, 1098, 1097
245, 495, 496, 697, 696, 897, 898, 1099, 1098
246, 496, 497, 698, 697, 898, 899, 1100, 1099
247, 497, 498, 699, 698, 899, 900, 1101, 1100
248, 498, 499, 700, 699, 900, 901, 1102, 1101
249, 499, 500, 701, 700, 901, 902, 1103, 1102
250, 500, 501, 702, 701, 902, 903, 1104, 1103
251, 501, 502, 703, 702, 903, 904, 1105, 1104
252, 502, 503, 704, 703, 904, 905, 1106, 1105
253, 503, 504, 705, 704, 905, 906, 1107, 1106
254, 504, 505, 706, 705, 906, 907, 1108, 1107
255, 505, 506, 707, 706, 907, 908, 1109, 1108
256, 506, 507, 708, 707, 908, 909, 1110, 1109
257, 507, 508, 709, 708, 909, 910, 1111, 1110
258, 508, 509, 710, 709, 910, 911, 1112, 1111
259, 509, 510, 711, 710, 911, 912, 1113, 1112
260, 510, 511, 712, 711, 912, 913, 1114, 1113
261, 511, 512, 713, 712, 913, 914, 1115, 1114
262, 512, 513, 714, 713, 914, 915, 1116, 1115
263, 513, 514, 715, 714, 915, 916, 1117, 1116
264, 514, 515, 716, 715, 916, 917, 1118, 1117
265, 515, 516, 717, 716, 917, 918, 1119, 1118
266, 516, 517, 718, 717, 918, 919, 1120, 1119
267, 517, 518, 719, 718, 919, 920, 1121, 1120
268, 518, 519, 720, 719, 920, 921, 1122, 1121
269, 519, 520, 721, 720, 921, 922, 1123, 1122
270, 520, 521, 722, 721, 922, 923, 1124, 1123
271, 521, 522, 723, 722, 923, 924, 1125, 1124
272, 522, 523, 724, 723, 924, 925, 1126, 1125
273, 523, 524, 725, 724, 925, 926, 1127, 1126
274, 524, 525, 726, 725, 926, 927, 1128, 1127
275, 525, 526, 727, 726, 927, 928, 1129, 1128
276, 526, 527, 728, 727, 928, 929, 1130, 1129
277, 527, 528, 729, 728, 929, 930, 1131, 1130
278, 528, 529, 730, 729, 930, 931, 1132, 1131
279, 529, 530, 731, 730, 931, 932, 1133, 1132
280, 530, 531, 732, 731, 932, 933, 1134, 1133
281, 531, 532, 733, 732, 933, 934, 1135, 1134
282, 532, 533, 734, 733, 934, 935, 1136, 1135
283, 533, 534, 735, 734, 935, 936, 1137, 1136
284, 534, 535, 736, 735, 936, 937, 1138, 1137
285, 535, 536, 737, 736, 937, 938, 1139, 1138
286, 536, 537, 738, 737, 938, 939, 1140, 1139
287, 537, 538, 739, 738, 939, 940, 1141, 1140
288, 538, 539, 740, 739, 940, 941, 1142, 1141
289, 539, 540, 741, 740, 941, 942, 1143, 1142
290, 540, 541, 742, 741, 942, 943, 1144, 1143
291, 541, 542, 743, 742, 943, 944, 1145, 1144
292, 542, 543, 744, 743, 944, 945, 1146, 1145
293, 543, 544, 745, 744, 945, 946, 1147, 1146
294, 544, 545, 746, 745, 946, 947, 1148, 1147
295, 545, 546, 747, 746, 947, 948, 1149, 1148
296, 546, 547, 748, 747, 948, 949, 1150, 1149
297, 547, 548, 749, 748, 949, 950, 1151, 1150
298, 548, 549, 750, 749, 950, 951, 1152, 1151
299, 549, 550, 751, 750, 951, 952, 1153, 1152
300, 550, 551, 752, 751, 952, 953, 1154, 1153
301, 551, 552, 753, 752, 953, 954, 1155, 1154
302, 552, 553, 754, 753, 954, 955, 1156, 1155
303, 553, 554, 755, 754, 955, 956, 1157, 1156
304, 554, 555, 756, 755, 956, 957, 1158, 1157
305, 555, 556, 757, 756, 957, 958, 1159, 1158
306, 556, 557, 758, 757, 958, 959, 1160, 1159
307, 557, 558, 759, 758, 959, 960, 1161, 1160
308, 558, 559, 760, 759, 960, 961, 1162, 1161
309, 559, 560, 761, 760, 961, 962, 1163, 1162
310, 560, 561, 762, 761, 962, 963, 1164, 1163
311, 561, 562, 763, 762, 963, 964, 1165, 1164
312, 562, 563, 764, 763, 964, 965, 1166, 1165
313, 563, 564, 765, 764, 965, 966, 1167, 1166
314, 564, 565, 766, 765, 966, 967, 1168, 1167
315, 565, 566, 767, 766, 967, 968, 1169, 1168
316, 566, 567, 768, 767, 968, 969, 1170, 1169
317, 567, 568, 769, 768, 969, 970, 1171, 1170
318, 568, 569, 770, 769, 970, 971, 1172, 1171
319, 569, 570, 771, 770, 971, 972, 1173, 1172
320, 570, 571, 772, 771, 972, 973, 1174, 1173
321, 571, 572, 773, 772, 973, 974, 1175, 1174
322, 572, 573, 774, 773, 974, 975, 1176, 1175
323, 573, 574, 775, 774, 975, 976, 1177, 1176
324, 574, 575, 776, 775, 976, 977, 1178, 1177
325, 575, 576, 777, 776, 977, 978, 1179, 1178
326, 576, 577, 778, 777, 978, 979, 1180, 1179
327, 577, 578, 779, 778, 979, 980, 1181, 1180
328, 578, 579, 780, 779, 980, 981, 1182, 1181
329, 579, 580, 781, 780, 981, 982, 1183, 1182
330, 580, 581, 782, 781, 982, 983, 1184, 1183
331, 581, 582, 783, 782, 983, 984, 1185, 1184
332, 582, 583, 784, 783, 984, 985, 1186, 1185
333, 583, 584, 785, 784, 985, 986, 1187, 1186
334, 584, 585, 786, 785, 986, 987, 1188, 1187
335, 585, 586, 787, 786, 987, 988, 1189, 1188
336, 586, 587, 788, 787, 988, 989, 1190, 1189
337, 587, 588, 789, 788, 989, 990, 1191, 1190
338, 588, 589, 790, 789, 990, 991, 1192, 1191
339, 589, 590, 791, 790, 991, 992, 1193, 1192
340, 590, 591, 792, 791, 992, 993, 1194, 1193
341, 591, 592, 793, 792, 993, 994, 1195, 1194
342, 592, 593, 794, 793, 994, 995, 1196, 1195
343, 593, 594, 795, 794, 995, 996, 1197, 1196
344, 594, 595, 796, 795, 996, 997, 1198, 1197
345, 595, 596, 797, 796, 997, 998, 1199, 1198
346, 596, 597, 798, 797, 998, 999, 1200, 1199
347, 597, 598, 799, 798, 999, 1000, 1201, 1200
348, 598, 599, 800, 799, 1000, 1001, 1202, 1201
349, 599, 600, 801, 800, 1001, 1002, 1203, 1202
350, 600, 601, 802, 801, 1002, 1003, 1204, 1203
351, 601, 602, 803, 802, 1003, 1004, 1205, 1204
352, 602, 603, 804, 803, 1004, 1005, 1206, 1205
353, 603, 604, 805, 804, 1005, 1006, 1207, 1206
354, 604, 605, 806, 805, 1006, 1007, 1208, 1207
355, 605, 606, 807, 806, 1007, 1008, 1209, 1208
356, 606, 607, 808, 807, 1008, 1009, 1210, 1209
357, 607, 608, 809, 808, 1009, 1010, 1211, 1210
358, 608, 609, 810, 809, 1010, 1011, 1212, 1211
359, 609, 610, 811, 810, 1011, 1012, 1213, 1212
360, 610, 611, 812, 811, 1012, 1013, 1214, 1213
*NSET, NSET=CLAMP
1, 2, 3, 4, 5, 6, 36, 37, 38, 39, 40, 41
42, 43, 44, 45, 46, 47, 77, 78, 79, 80, 81, 82
83, 84, 85, 86, 87, 88, 118, 119, 120, 121, 122, 123
124, 125, 126, 127, 128, 129, 159, 160, 161, 162, 163, 164
165, 166, 167, 168, 169, 170, 200, 201, 202, 203, 204, 205
206, 207, 208, 209, 210, 211, 241, 242, 243, 244, 245, 246
247, 248, 249, 250, 251, 252, 282, 283, 284, 285, 286, 287
288, 289, 290, 291, 292, 293, 323, 324, 325, 326, 327, 328
329, 330, 331, 332, 333, 334, 364, 365, 366, 367, 368, 369
370, 371, 372, 373, 374, 375, 405, 406, 407, 408, 409, 410
*NSET, NSET=SUPA
331, 372
*NSET, NSET=SUPB
367, 408
*NSET, NSET=NTOP
329, 330, 331, 332, 333, 334, 335, 336, 337, 338, 339, 340
341, 342, 343, 344, 345, 346, 347, 348, 349, 350, 351, 352
353, 354, 355, 356, 357, 358, 359, 360, 361, 362, 363, 364
365, 366, 367, 368, 369, 370, 371, 372, 373, 374, 375, 376
377, 378, 379, 380, 381, 382, 383, 384, 385, 386, 387, 388
389, 390, 391, 392, 393, 394, 395, 396, 397, 398, 399, 400
401, 402, 403, 404, 405, 406, 407, 408, 409, 410
*ELSET, ELSET=ETOPL
121, 122, 123, 124, 125, 126, 127, 128, 129, 130, 131, 132
133, 134, 135, 136, 137, 138, 139, 140, 141, 142, 143, 144
145, 146, 147, 148, 149, 150, 151, 152, 153, 154, 155, 156
157, 158, 159, 160
*SURFACE, NAME=SSLAVE, TYPE=ELEMENT
ETOPL, S2
*SURFACE, NAME=SMASTER, TYPE=ELEMENT
161, S1
162, S1
163, S1
164, S1
165, S1
166, S1
167, S1
168, S1
169, S1
170, S1
171, S1
172, S1
173, S1
174, S1
175, S1
176, S1
177, S1
178, S1
179, S1
180, S1
181, S1
182, S1
183, S1
184, S1
185, S1
186, S1
187, S1
188, S1
189, S1
190, S1
191, S1
192, S1
193, S1
194, S1
195, S1
196, S1
197, S1
198, S1
199, S1
200, S1
201, S1
202, S1
203, S1
204, S1
205, S1
206, S1
207, S1
208, S1
209, S1
210, S1
211, S1
212, S1
213, S1
214, S1
215, S1
216, S1
217, S1
218, S1
219, S1
220, S1
221, S1
222, S1
223, S1
224, S1
225, S1
226, S1
227, S1
228, S1
229, S1
230, S1
231, S1
232, S1
233, S1
234, S1
235, S1
236, S1
237, S1
238, S1
239, S1
240, S1
241, S1
242, S1
243, S1
244, S1
245, S1
246, S1
247, S1
248, S1
249, S1
250, S1
251, S1
252, S1
253, S1
254, S1
255, S1
256, S1
257, S1
258, S1
259, S1
260, S1
261, S1
262, S1
263, S1
264, S1
265, S1
266, S1
267, S1
268, S1
269, S1
270, S1
271, S1
272, S1
273, S1
274, S1
275, S1
276, S1
277, S1
278, S1
279, S1
280, S1
281, S1
282, S1
283, S1
284, S1
285, S1
286, S1
287, S1
288, S1
289, S1
290, S1
291, S1
292, S1
293, S1
294, S1
295, S1
296, S1
297, S1
298, S1
299, S1
300, S1
301, S1
302, S1
303, S1
304, S1
305, S1
306, S1
307, S1
308, S1
309, S1
310, S1
311, S1
312, S1
313, S1
314, S1
315, S1
316, S1
317, S1
318, S1
319, S1
320, S1
321, S1
322, S1
323, S1
324, S1
325, S1
326, S1
327, S1
328, S1
329, S1
330, S1
331, S1
332, S1
333, S1
334, S1
335, S1
336, S1
337, S1
338, S1
339, S1
340, S1
341, S1
342, S1
343, S1
344, S1
345, S1
346, S1
347, S1
348, S1
349, S1
350, S1
351, S1
352, S1
353, S1
354, S1
355, S1
356, S1
357, S1
358, S1
359, S1
360, S1
*MATERIAL, NAME=AL
*ELASTIC
70000, 0.33
*PLASTIC
100, 0
102.005739, 0.001
103.986239, 0.002
105.94186, 0.003
107.872956, 0.004
109.779878, 0.005
111.662972, 0.006
113.522577, 0.007
115.359028, 0.008
117.172657, 0.009
118.963788, 0.01
120.732743, 0.011
122.479839, 0.012
124.205387, 0.013
125.909695, 0.014
127.593067, 0.015
129.255801, 0.016
130.898192, 0.017
132.52053, 0.018
134.123101, 0.019
135.706188, 0.02
137.270069, 0.021
138.815018, 0.022
140.341305, 0.023
141.849196, 0.024
143.338954, 0.025
144.810839, 0.026
146.265105, 0.027
147.702003, 0.028
149.121781, 0.029
150.524685, 0.03
151.910955, 0.031
153.280827, 0.032
154.634537, 0.033
155.972315, 0.034
157.294389, 0.035
158.600982, 0.036
159.892316, 0.037
161.168608, 0.038
162.430073, 0.039
163.676923, 0.04
164.909367, 0.041
166.127609, 0.042
167.331854, 0.043
168.5223, 0.044
169.699144, 0.045
170.862581, 0.046
172.012803, 0.047
173.149997, 0.048
174.27435, 0.049
175.386045, 0.05
176.485262, 0.051
177.57218, 0.052
178.646975, 0.053
179.70982, 0.054
180.760884, 0.055
181.800336, 0.056
182.828343, 0.057
183.845067, 0.058
184.850669, 0.059
185.845308, 0.06
186.829141, 0.061
187.802322, 0.062
188.765003, 0.063
189.717334, 0.064
190.659462, 0.065
191.591533, 0.066
192.513692, 0.067
193.426078, 0.068
194.328833, 0.069
195.222092, 0.07
196.105993, 0.071
196.980668, 0.072
197.846249, 0.073
198.702866, 0.074
199.550646, 0.075
200.389717, 0.076
201.220202, 0.077
202.042224, 0.078
202.855904, 0.079
203.661361, 0.08
204.458711, 0.081
205.248072, 0.082
206.029556, 0.083
206.803277, 0.084
207.569345, 0.085
208.32787, 0.086
209.078958, 0.087
209.822717, 0.088
210.559251, 0.089
211.288663, 0.09
212.011054, 0.091
212.726526, 0.092
213.435176, 0.093
214.137102, 0.094
214.8324, 0.095
215.521165, 0.096
216.20349, 0.097
216.879466, 0.098
217.549185, 0.099
218.212736, 0.1
218.870207, 0.101
219.521684, 0.102
220.167254, 0.103
220.807, 0.104
221.441005, 0.105
222.069352, 0.106
222.692122, 0.107
223.309393, 0.108
223.921245, 0.109
224.527755, 0.11
225.128999, 0.111
225.725052, 0.112
226.315989, 0.113
226.901882, 0.114
227.482803, 0.115
228.058823, 0.116
228.630013, 0.117
229.196441, 0.118
229.758176, 0.119
230.315283, 0.12
230.86783, 0.121
231.415882, 0.122
231.959501, 0.123
232.498753, 0.124
233.033699, 0.125
233.5644, 0.126
234.090918, 0.127
234.613311, 0.128
235.13164, 0.129
235.645961, 0.13
236.156332, 0.131
236.66281, 0.132
237.16545, 0.133
237.664306, 0.134
238.159434, 0.135
238.650885, 0.136
239.138713, 0.137
239.622969, 0.138
240.103704, 0.139
240.580969, 0.14
241.054813, 0.141
241.525284, 0.142
241.992432, 0.143
242.456303, 0.144
242.916944, 0.145
243.374402, 0.146
243.828721, 0.147
244.279947, 0.148
244.728123, 0.149
245.173294, 0.15
245.615502, 0.151
246.054789, 0.152
246.491198, 0.153
246.924768, 0.154
247.355542, 0.155
247.783558, 0.156
248.208856, 0.157
248.631475, 0.158
249.051453, 0.159
249.468828, 0.16
249.883636, 0.161
250.295915, 0.162
250.705701, 0.163
251.113029, 0.164
251.517935, 0.165
251.920452, 0.166
252.320616, 0.167
252.718459, 0.168
253.114014, 0.169
253.507316, 0.17
253.898394, 0.171
254.287282, 0.172
254.674011, 0.173
255.058611, 0.174
255.441112, 0.175
255.821546, 0.176
256.19994, 0.177
256.576325, 0.178
256.95073, 0.179
257.323181, 0.18
257.693707, 0.181
258.062337, 0.182
258.429096, 0.183
258.794011, 0.184
259.157109, 0.185
259.518416, 0.186
259.877957, 0.187
260.235758, 0.188
260.591843, 0.189
260.946237, 0.19
261.298963, 0.191
261.650047, 0.192
261.999511, 0.193
262.347378, 0.194
262.693671, 0.195
263.038413, 0.196
263.381625, 0.197
263.72333, 0.198
264.063549, 0.199
264.402304, 0.2
264.739614, 0.201
265.075502, 0.202
265.409986, 0.203
265.743088, 0.204
266.074827, 0.205
266.405222, 0.206
266.734292, 0.207
267.062057, 0.208
267.388535, 0.209
267.713744, 0.21
268.037703, 0.211
268.36043, 0.212
268.681941, 0.213
269.002255, 0.214
269.321388, 0.215
269.639358, 0.216
269.95618, 0.217
270.271872, 0.218
270.586449, 0.219
270.899927, 0.22
271.212323, 0.221
271.523651, 0.222
271.833926, 0.223
272.143164, 0.224
272.45138, 0.225
272.758588, 0.226
273.064803, 0.227
273.370038, 0.228
273.674308, 0.229
273.977626, 0.23
274.280007, 0.231
274.581462, 0.232
274.882007, 0.233
275.181653, 0.234
275.480414, 0.235
275.778301, 0.236
276.075328, 0.237
276.371508, 0.238
276.666851, 0.239
276.961369, 0.24
277.255076, 0.241
277.547982, 0.242
277.840098, 0.243
278.131437, 0.244
278.422008, 0.245
278.711824, 0.246
279.000894, 0.247
279.28923, 0.248
279.576841, 0.249
279.863739, 0.25
280.149933, 0.251
280.435434, 0.252
280.720251, 0.253
281.004395, 0.254
281.287874, 0.255
281.570698, 0.256
281.852877, 0.257
282.13442, 0.258
282.415335, 0.259
282.695633, 0.26
282.975321, 0.261
283.254408, 0.262
283.532904, 0.263
283.810815, 0.264
284.088152, 0.265
284.364921, 0.266
284.641132, 0.267
284.916791, 0.268
285.191907, 0.269
285.466488, 0.27
285.740541, 0.271
286.014074, 0.272
286.287094, 0.273
286.559609, 0.274
286.831626, 0.275
287.103151, 0.276
287.374192, 0.277
287.644756, 0.278
287.91485, 0.279
288.18448, 0.28
288.453653, 0.281
288.722375, 0.282
288.990653, 0.283
289.258493, 0.284
289.525902, 0.285
289.792886, 0.286
290.05945, 0.287
290.325601, 0.288
290.591345, 0.289
290.856687, 0.29
291.121633, 0.291
291.386189, 0.292
291.65036, 0.293
291.914152, 0.294
292.17757, 0.295
292.44062, 0.296
292.703307, 0.297
292.965636, 0.298
293.227612, 0.299
293.48924, 0.3
296.087451, 0.31
298.655918, 0.32
301.198624, 0.33
303.71902, 0.34
306.220093, 0.35
308.70443, 0.36
311.174273, 0.37
313.631564, 0.38
316.077982, 0.39
318.514984, 0.4
320.943831, 0.41
323.365615, 0.42
325.781282, 0.43
328.191651, 0.44
330.597432, 0.45
332.999239, 0.46
335.397604, 0.47
337.792988, 0.48
340.18579, 0.49
342.576356, 0.5
344.964986, 0.51
347.351939, 0.52
349.737439, 0.53
352.121681, 0.54
354.504834, 0.55
356.887043, 0.56
359.268435, 0.57
361.649118, 0.58
364.029189, 0.59
366.408729, 0.6
368.787809, 0.61
371.166491, 0.62
373.544827, 0.63
375.922866, 0.64
378.300645, 0.65
380.6782, 0.66
383.055561, 0.67
385.432754, 0.68
387.809802, 0.69
390.186723, 0.7
392.563536, 0.71
394.940253, 0.72
397.316889, 0.73
399.693454, 0.74
402.069957, 0.75
404.446407, 0.76
406.822811, 0.77
409.199176, 0.78
411.575505, 0.79
413.951805, 0.8
416.328079, 0.81
418.70433, 0.82
421.080562, 0.83
423.456777, 0.84
425.832977, 0.85
428.209165, 0.86
430.585342, 0.87
432.961509, 0.88
435.337668, 0.89
437.71382, 0.9
440.089966, 0.91
442.466107, 0.92
444.842243, 0.93
447.218375, 0.94
449.594503, 0.95
451.970629, 0.96
454.346751, 0.97
456.722872, 0.98
459.098991, 0.99
461.475108, 1
463.851223, 1.01
466.227337, 1.02
468.603451, 1.03
470.979563, 1.04
473.355674, 1.05
475.731785, 1.06
478.107895, 1.07
480.484004, 1.08
482.860113, 1.09
485.236222, 1.1
487.61233, 1.11
489.988438, 1.12
492.364546, 1.13
494.740654, 1.14
497.116761, 1.15
499.492868, 1.16
501.868975, 1.17
504.245082, 1.18
506.621189, 1.19
508.997295, 1.2
511.373402, 1.21
513.749508, 1.22
516.125615, 1.23
518.501721, 1.24
520.877828, 1.25
523.253934, 1.26
525.63004, 1.27
528.006146, 1.28
530.382253, 1.29
532.758359, 1.3
535.134465, 1.31
537.510571, 1.32
539.886677, 1.33
542.262783, 1.34
544.63889, 1.35
547.014996, 1.36
549.391102, 1.37
551.767208, 1.38
554.143314, 1.39
556.51942, 1.4
558.895526, 1.41
561.271632, 1.42
563.647738, 1.43
566.023844, 1.44
568.399951, 1.45
570.776057, 1.46
573.152163, 1.47
575.528269, 1.48
577.904375, 1.49
580.280481, 1.5
582.656587, 1.51
585.032693, 1.52
587.408799, 1.53
589.784905, 1.54
592.161011, 1.55
594.537117, 1.56
596.913223, 1.57
599.289329, 1.58
601.665435, 1.59
604.041541, 1.6
606.417647, 1.61
608.793754, 1.62
611.16986, 1.63
613.545966, 1.64
615.922072, 1.65
618.298178, 1.66
620.674284, 1.67
623.05039, 1.68
625.426496, 1.69
627.802602, 1.7
630.178708, 1.71
632.554814, 1.72
634.93092, 1.73
637.307026, 1.74
639.683132, 1.75
642.059238, 1.76
644.435344, 1.77
646.81145, 1.78
649.187556, 1.79
651.563662, 1.8
653.939769, 1.81
656.315875, 1.82
658.691981, 1.83
661.068087, 1.84
663.444193, 1.85
665.820299, 1.86
668.196405, 1.87
670.572511, 1.88
672.948617, 1.89
675.324723, 1.9
677.700829, 1.91
680.076935, 1.92
682.453041, 1.93
684.829147, 1.94
687.205253, 1.95
689.581359, 1.96
691.957465, 1.97
694.333571, 1.98
696.709677, 1.99
699.085784, 2
701.46189, 2.01
703.837996, 2.02
706.214102, 2.03
708.590208, 2.04
710.966314, 2.05
713.34242, 2.06
715.718526, 2.07
718.094632, 2.08
720.470738, 2.09
722.846844, 2.1
725.22295, 2.11
727.599056, 2.12
729.975162, 2.13
732.351268, 2.14
734.727374, 2.15
737.10348, 2.16
739.479586, 2.17
741.855693, 2.18
744.231799, 2.19
746.607905, 2.2
748.984011, 2.21
751.360117, 2.22
753.736223, 2.23
756.112329, 2.24
758.488435, 2.25
760.864541, 2.26
763.240647, 2.27
765.616753, 2.28
767.992859, 2.29
770.368965, 2.3
772.745071, 2.31
775.121177, 2.32
777.497283, 2.33
779.873389, 2.34
782.249495, 2.35
784.625601, 2.36
787.001708, 2.37
789.377814, 2.38
791.75392, 2.39
794.130026, 2.4
796.506132, 2.41
798.882238, 2.42
801.258344, 2.43
803.63445, 2.44
806.010556, 2.45
808.386662, 2.46
810.762768, 2.47
813.138874, 2.48
815.51498, 2.49
817.891086, 2.5
820.267192, 2.51
822.643298, 2.52
825.019404, 2.53
827.39551, 2.54
829.771616, 2.55
832.147723, 2.56
834.523829, 2.57
836.899935, 2.58
839.276041, 2.59
841.652147, 2.6
844.028253, 2.61
846.404359, 2.62
848.780465, 2.63
851.156571, 2.64
853.532677, 2.65
855.908783, 2.66
858.284889, 2.67
860.660995, 2.68
863.037101, 2.69
865.413207, 2.7
867.789313, 2.71
870.165419, 2.72
872.541525, 2.73
874.917631, 2.74
877.293738, 2.75
879.669844, 2.76
882.04595, 2.77
884.422056, 2.78
886.798162, 2.79
889.174268, 2.8
891.550374, 2.81
893.92648, 2.82
896.302586, 2.83
898.678692, 2.84
901.054798, 2.85
903.430904, 2.86
905.80701, 2.87
908.183116, 2.88
910.559222, 2.89
912.935328, 2.9
915.311434, 2.91
917.68754, 2.92
920.063646, 2.93
922.439753, 2.94
924.815859, 2.95
927.191965, 2.96
929.568071, 2.97
931.944177, 2.98
934.320283, 2.99
936.696389, 3

*MATERIAL, NAME=STEEL
*ELASTIC
210000., 0.3
*SOLID SECTION, ELSET=SHEET, MATERIAL=AL
*SOLID SECTION, ELSET=TOOL, MATERIAL=STEEL
*SURFACE INTERACTION, NAME=SI
*SURFACE BEHAVIOR, PRESSURE-OVERCLOSURE=LINEAR
700000, 0.01
*FRICTION
0.1, 700000
*CONTACT PAIR, INTERACTION=SI, TYPE=NODE TO SURFACE
SSLAVE, SMASTER
*STEP, NLGEOM, INC=100000
*STATIC
0.025, 1.0, 2.5e-06, 0.025
*BOUNDARY
NSHEET, 2, 2, 0.0
*BOUNDARY
CLAMP, 1, 1, 0.0
CLAMP, 3, 3, 0.0
*BOUNDARY
PUNCH, 1, 1, 0
PUNCH, 2, 2, 0
PUNCH, 3, 3, -4
*NODE PRINT, NSET=PUNCH, TOTALS=ONLY
RF
*NODE PRINT, NSET=NTOP
U
*EL PRINT, ELSET=SHEET
PEEQ
*END STEP
*STEP, NLGEOM, INC=100000
*STATIC
0.02, 1.0, 2e-06, 0.02
*BOUNDARY
NSHEET, 2, 2, 0.0
*BOUNDARY
CLAMP, 1, 1, 0.0
CLAMP, 3, 3, 0.0
*BOUNDARY
PUNCH, 1, 1, 0
PUNCH, 2, 2, 0
PUNCH, 3, 3, 1
*NODE PRINT, NSET=PUNCH, TOTALS=ONLY
RF
*NODE PRINT, NSET=NTOP
U
*EL PRINT, ELSET=SHEET
PEEQ
*END STEP
*STEP, NLGEOM, INC=100000
*STATIC
0.05, 1.0, 1e-6, 0.05
*BOUNDARY, OP=NEW
NSHEET, 2, 2, 0.0
PUNCH, 1, 1, 0
PUNCH, 2, 2, 0
PUNCH, 3, 3, 1
SUPA, 1, 1, 0.0
SUPA, 3, 3, 0.0
SUPB, 3, 3, 0.0
*NODE PRINT, NSET=PUNCH, TOTALS=ONLY
RF
*NODE PRINT, NSET=NTOP
U
*EL PRINT, ELSET=SHEET
PEEQ
*END STEP
